LAMMPS (22 Dec 2022)
OMP_NUM_THREADS environment is not set. Defaulting to 1 thread. (src/comm.cpp:98)
  using 1 OpenMP thread(s) per MPI task
Loaded 1 plugins from C:\Users\camil\AppData\Local\LAMMPS 64-bit 22Dec2022\plugins
units real
atom_style full
region box block -100 100 -100 100 -100 100
create_box 2 box bond/types 1 angle/types 1 extra/bond/per/atom 2 extra/angle/per/atom 1 extra/special/per/atom 2
Created orthogonal box = (-100 -100 -100) to (100 100 100)
  1 by 1 by 1 MPI processor grid

mass 1 15.9994
mass 2 1.008

pair_style lj/cut/coul/cut 10.0
pair_coeff 1 1 0.1553 3.166
pair_coeff 1 2 0.0    1.0
pair_coeff 2 2 0.0    1.0

bond_style zero
bond_coeff 1 1.0

angle_style zero
angle_coeff 1 109.47

molecule water spce.mol
Read molecule template water:
  1 molecules
  0 fragments
  3 atoms with max type 2
  2 bonds with max type 1
  1 angles with max type 1
  0 dihedrals with max type 0
  0 impropers with max type 0

create_atoms 0 random 100 34564 NULL mol water 25367 remap yes
Created 300 atoms
  using lattice units in orthogonal box = (-100 -100 -100) to (100 100 100)
  create_atoms CPU = 0.001 seconds

timestep 1.0
fix rigid all shake 0.0001 10 10000 b 1 a 1
Finding SHAKE clusters ...
       0 = # of size 2 clusters
       0 = # of size 3 clusters
       0 = # of size 4 clusters
     100 = # of frozen angles
  find clusters CPU = 0.000 seconds
#minimize 0.0 0.0 1000 10000
#run 0 post no
#reset_timestep 0
velocity all create 300.0 5463576
fix integrate all nvt temp 300.0 300.0 1.0

dump waterdump all atom 5000 dump.lammpstrj

thermo_style custom step temp press etotal density pe ke
thermo 1000
run 1000000 upto
Generated 0 of 1 mixed pair_coeff terms from geometric mixing rule
Neighbor list info ...
  update: every = 1 steps, delay = 0 steps, check = yes
  max neighbors/atom: 2000, page size: 100000
  master list distance cutoff = 12
  ghost atom cutoff = 12
  binsize = 6, bins = 34 34 34
  1 neighbor lists, perpetual/occasional/extra = 1 0 0
  (1) pair lj/cut/coul/cut, perpetual
      attributes: half, newton on
      pair build: half/bin/newton
      stencil: half/bin/3d
      bin: standard
SHAKE stats (type/ave/delta/count) on step 0
Bond:   1   1         2.62013e-14      200
Angle:  1   109.47    2.359e-12        100
Per MPI rank memory allocation (min/avg/max) = 8.745 | 8.745 | 8.745 Mbytes
   Step          Temp          Press          TotEng        Density         PotEng         KinEng    
         0   300            4.8994073      165.75565      0.00037394091 -12.198706      177.95436    
      1000   290.31202      0.49759073     171.22095      0.00037394091 -0.98667871     172.20763    
      2000   283.08651      0.51911485     177.51365      0.00037394091  9.5920585      167.9216     
      3000   294.26975      0.45382209     155.84908      0.00037394091 -18.706209      174.55529    
      4000   288.86358      0.55192484     171.08496      0.00037394091 -0.26348256     171.34845    
      5000   293.06353      0.48748355     178.3053       0.00037394091  4.4655253      173.83978    
      6000   277.46277      0.52011834     174.88555      0.00037394091  10.299848      164.5857     
      7000   302.23229      0.56245113     207.14222      0.00037394091  27.863707      179.27851    
      8000   290.05526      0.5065244      183.77632      0.00037394091  11.720993      172.05533    
      9000   290.70259      0.50651958     177.64544      0.00037394091  5.2061286      172.43931    
SHAKE stats (type/ave/delta/count) on step 10000
Bond:   1   1         2.15543e-05      200
Angle:  1   109.47    0.00218131       100
     10000   302.2793       0.44539622     171.33045      0.00037394091 -7.9759461      179.3064     
     11000   299.73602      0.47399411     171.65003      0.00037394091 -6.147745       177.79777    
     12000   290.22314      0.46880213     170.55184      0.00037394091 -1.6030686      172.15491    
     13000   304.63206      0.44123838     168.0907       0.00037394091 -12.611308      180.70201    
     14000   284.13064      0.40363862     138.2144       0.00037394091 -30.326557      168.54095    
     15000   294.23362      0.44268818     161.13175      0.00037394091 -13.4021        174.53385    
     16000   313.05796      0.48559219     180.33146      0.00037394091 -5.3686369      185.7001     
     17000   300.35795      0.47107363     177.77158      0.00037394091 -0.3951118      178.16669    
     18000   308.13828      0.46000575     170.16612      0.00037394091 -12.615715      182.78183    
     19000   283.37053      0.39897098     132.33895      0.00037394091 -35.75112       168.09007    
SHAKE stats (type/ave/delta/count) on step 20000
Bond:   1   1.00001   5.39745e-05      200
Angle:  1   109.47    0.00850722       100
     20000   324.41952      0.57497635     204.40661      0.00037394091  11.967051      192.43956    
     21000   314.67569      0.4899353      180.66252      0.00037394091 -5.9971828      186.65971    
     22000   301.55863      0.49645698     171.38779      0.00037394091 -7.4911166      178.87891    
     23000   287.11445      0.47246002     168.04499      0.00037394091 -2.2659072      170.3109     
     24000   286.69121      0.55260248     193.38855      0.00037394091  23.32872       170.05983    
     25000   316.25483      0.46856894     169.25472      0.00037394091 -18.341695      187.59642    
     26000   300.30797      0.45299609     159.54881      0.00037394091 -18.588229      178.13704    
     27000   296.09729      0.45563729     162.23271      0.00037394091 -13.406642      175.63935    
     28000   291.83559      0.52759397     179.39533      0.00037394091  6.2839443      173.11139    
     29000   310.65753      0.54357522     189.72359      0.00037394091  5.4473855      184.27621    
SHAKE stats (type/ave/delta/count) on step 30000
Bond:   1   1.00001   2.40713e-05      200
Angle:  1   109.47    0.00250006       100
     30000   317.91088      0.55935939     188.57876      0.00037394091  0              188.57876    
     31000   293.80838      0.52528753     179.8459       0.00037394091  5.5642977      174.28161    
     32000   320.07981      0.53745673     196.16964      0.00037394091  6.3043078      189.86533    
     33000   316.92519      0.54451751     194.02952      0.00037394091  6.0354582      187.99407    
     34000   300.57141      0.50174518     176.6049       0.00037394091 -1.6884111      178.29331    
     35000   326.76772      0.47997501     193.64709      0.00037394091 -0.18537796     193.83247    
     36000   288.09767      0.54026076     177.36527      0.00037394091  6.4711452      170.89412    
     37000   285.15082      0.43828404     154.88327      0.00037394091 -14.26284       169.14611    
     38000   296.40606      0.507417       176.37572      0.00037394091  0.5532152      175.8225     
     39000   300.61142      0.52224615     183.8177       0.00037394091  5.5006538      178.31705    
SHAKE stats (type/ave/delta/count) on step 40000
Bond:   1   1         4.01417e-06      200
Angle:  1   109.47    0.000450976      100
     40000   299.04987      0.50276273     177.31857      0.00037394091 -0.072194287    177.39076    
     41000   286.70803      0.4621629      169.97489      0.00037394091 -0.09492416     170.06981    
     42000   276.88264      0.54614534     175.9296       0.00037394091  11.688025      164.24158    
     43000   309.24057      0.47975214     171.6361       0.00037394091 -11.799595      183.43569    
     44000   308.30172      0.55651021     182.74295      0.00037394091 -0.1358303      182.87878    
     45000   301.4223       0.55109498     185.0778       0.00037394091  6.2797525      178.79804    
     46000   299.1591       0.52635282     177.57988      0.00037394091  0.12432511     177.45555    
     47000   311.71594      0.54497362     191.29136      0.00037394091  6.387325       184.90403    
     48000   316.78388      0.49584367     182.35492      0.00037394091 -5.555318       187.91024    
     49000   298.96401      0.45733913     159.55763      0.00037394091 -17.782196      177.33983    
SHAKE stats (type/ave/delta/count) on step 50000
Bond:   1   0.999999  3.25449e-06      200
Angle:  1   109.47    0.000377626      100
     50000   300.81638      0.61433338     176.65096      0.00037394091 -1.7876656      178.43862    
     51000   299.43639      0.50067049     171.65018      0.00037394091 -5.9698565      177.62004    
     52000   303.12066      0.61560905     209.28424      0.00037394091  29.478767      179.80548    
     53000   294.54101      0.49288597     168.53         0.00037394091 -6.1861926      174.71619    
     54000   307.88113      0.55233039     187.46723      0.00037394091  4.8379322      182.6293     
     55000   284.20651      0.52983121     174.95322      0.00037394091  6.367254       168.58596    
     56000   302.67083      0.60734272     202.47724      0.00037394091  22.938596      179.53865    
     57000   313.01713      0.50457584     185.2509       0.00037394091 -0.42497343     185.67588    
     58000   297.06558      0.53893768     182.32336      0.00037394091  6.1096407      176.21372    
     59000   330.84519      0.4900305      190.24812      0.00037394091 -6.0030252      196.25114    
SHAKE stats (type/ave/delta/count) on step 60000
Bond:   1   0.999981  9.14205e-05      200
Angle:  1   109.471   0.00792597       100
     60000   262.81123      0.38568922     126.5322       0.00037394091 -29.362479      155.89468    
     61000   317.81053      0.55091302     206.13042      0.00037394091  17.611188      188.51923    
     62000   308.62428      0.5118816      188.27896      0.00037394091  5.2088461      183.07012    
     63000   279.75072      0.54234931     165.47319      0.00037394091 -0.4696848      165.94287    
     64000   300.53332      0.46929952     176.22714      0.00037394091 -2.0435792      178.27072    
     65000   280.46649      0.56036846     164.92195      0.00037394091 -1.4454978      166.36745    
     66000   281.49192      0.54776834     184.83344      0.00037394091  17.857725      166.97571    
     67000   302.88037      0.42545953     167.29302      0.00037394091 -12.36992       179.66294    
     68000   284.07862      0.50158342     156.74198      0.00037394091 -11.76812       168.5101     
     69000   281.08158      0.51392585     172.78673      0.00037394091  6.0544234      166.73231    
SHAKE stats (type/ave/delta/count) on step 70000
Bond:   1   0.999985  6.16458e-05      200
Angle:  1   109.471   0.00764455       100
     70000   280.47586      0.50196949     164.68922      0.00037394091 -1.6837881      166.37301    
     71000   272.86921      0.41782977     149.68122      0.00037394091 -12.179667      161.86088    
     72000   326.81618      0.50721711     192.35206      0.00037394091 -1.5091565      193.86122    
     73000   288.7742       0.64268064     204.20257      0.00037394091  32.907144      171.29542    
     74000   320.12491      0.4460527      176.48962      0.00037394091 -13.402464      189.89208    
     75000   344.90618      0.57845401     204.7192       0.00037394091  0.12734164     204.59186    
     76000   284.3445       0.55759796     162.96237      0.00037394091 -5.7054377      168.66781    
     77000   299.40815      0.50163412     176.70493      0.00037394091 -0.89834829     177.60328    
     78000   308.07722      0.63887925     189.38203      0.00037394091  6.6364128      182.74561    
     79000   282.05054      0.51234537     166.82746      0.00037394091 -0.47962189     167.30708    
SHAKE stats (type/ave/delta/count) on step 80000
Bond:   1   1.00001   8.32916e-05      200
Angle:  1   109.47    0.0106708        100
     80000   308.95962      0.54856239     194.83101      0.00037394091  11.561972      183.26904    
     81000   311.50805      0.49713279     180.32701      0.00037394091 -4.4537054      184.78072    
     82000   303.75644      0.48534559     169.95798      0.00037394091 -10.224631      180.18261    
     83000   281.34981      0.64364811     184.88975      0.00037394091  17.998328      166.89142    
     84000   283.15304      0.44491054     158.13506      0.00037394091 -9.8259981      167.96106    
     85000   267.66771      0.44580053     153.63551      0.00037394091 -5.1399415      158.77546    
     86000   278.51993      0.57297016     188.32714      0.00037394091  23.114353      165.21279    
     87000   281.28156      0.41677243     142.83446      0.00037394091 -24.016475      166.85093    
     88000   308.18752      0.50542943     180.63777      0.00037394091 -2.1732702      182.81104    
     89000   298.09399      0.46910923     170.33523      0.00037394091 -6.4885246      176.82375    
SHAKE stats (type/ave/delta/count) on step 90000
Bond:   1   1         7.68642e-06      200
Angle:  1   109.47    0.00107775       100
     90000   302.4116       0.46058533     163.78106      0.00037394091 -15.603816      179.38487    
     91000   265.57427      0.44995374     121.09288      0.00037394091 -36.440787      157.53367    
     92000   282.96682      0.49003897     171.5951       0.00037394091  3.7445049      167.8506     
     93000   288.66633      0.55336919     176.18614      0.00037394091  4.9547029      171.23144    
     94000   289.07741      0.49219752     165.65458      0.00037394091 -5.8207075      171.47529    
     95000   267.03246      0.37635279     135.07113      0.00037394091 -23.327504      158.39864    
     96000   297.66049      0.69298132     167.24961      0.00037394091 -9.3170022      176.56661    
     97000   290.88923      0.49222065     175.13366      0.00037394091  2.5836329      172.55002    
     98000   313.21169      0.49353581     182.02923      0.00037394091 -3.7620561      185.79129    
     99000   281.27575      0.49461407     164.52216      0.00037394091 -2.3253232      166.84749    
SHAKE stats (type/ave/delta/count) on step 100000
Bond:   1   1         5.78802e-06      200
Angle:  1   109.47    0.000660627      100
    100000   302.94578      0.55472016     170.23788      0.00037394091 -9.4638602      179.70174    
    101000   328.60808      0.4755967      188.10415      0.00037394091 -6.819991       194.92414    
    102000   288.63841      0.50809633     175.41645      0.00037394091  4.201574       171.21488    
    103000   322.81926      0.41340918     169.58925      0.00037394091 -21.901062      191.49032    
    104000   307.34445      0.44463347     190.44516      0.00037394091  8.1342053      182.31095    
    105000   277.98526      0.44196288     159.62335      0.00037394091 -5.272282       164.89563    
    106000   287.15443      0.57430315     171.54625      0.00037394091  1.2116429      170.33461    
    107000   298.56817      0.44295994     168.33819      0.00037394091 -8.7668325      177.10502    
    108000   302.4421       0.47064631     173.29005      0.00037394091 -6.1129152      179.40297    
    109000   316.86366      0.46519635     181.57873      0.00037394091 -6.3788307      187.95756    
SHAKE stats (type/ave/delta/count) on step 110000
Bond:   1   1         7.7056e-06       200
Angle:  1   109.47    0.000517927      100
    110000   310.45001      0.52050004     182.1818       0.00037394091 -1.971307       184.15311    
    111000   294.65085      0.50285196     181.31808      0.00037394091  6.5367356      174.78134    
    112000   289.25335      0.49307943     166.30703      0.00037394091 -5.2726212      171.57965    
    113000   286.94393      0.5865736      174.99889      0.00037394091  4.7891506      170.20974    
    114000   312.24469      0.59165568     201.04007      0.00037394091  15.822385      185.21768    
    115000   301.21707      0.56548272     166.25346      0.00037394091 -12.422842      178.6763     
    116000   289.87321      0.48461951     157.93452      0.00037394091 -14.012823      171.94734    
    117000   291.56849      0.53335502     166.59561      0.00037394091 -6.3573383      172.95295    
    118000   294.3439       0.47942872     165.04427      0.00037394091 -9.5550018      174.59927    
    119000   298.02681      0.68915965     202.37903      0.00037394091  25.595128      176.7839     
SHAKE stats (type/ave/delta/count) on step 120000
Bond:   1   1         5.01094e-07      200
Angle:  1   109.47    2.8725e-05       100
    120000   297.24914      0.51341616     176.54421      0.00037394091  0.22160432     176.3226     
    121000   287.22974      0.56815977     170.58356      0.00037394091  0.20428317     170.37928    
    122000   281.78109      0.56311771     178.71689      0.00037394091  11.569645      167.14725    
    123000   297.24146      0.4934291      170.06305      0.00037394091 -6.2549969      176.31805    
    124000   333.05477      0.60310049     196.86563      0.00037394091 -0.69619637     197.56183    
    125000   316.4313       0.49182809     181.44411      0.00037394091 -6.2569828      187.7011     
    126000   285.16779      0.47980028     144.70639      0.00037394091 -24.449788      169.15617    
    127000   330.31924      0.48635899     186.46626      0.00037394091 -9.4728995      195.93916    
    128000   283.09363      0.5950246      188.30986      0.00037394091  20.384044      167.92582    
    129000   293.93949      0.61293988     192.84334      0.00037394091  18.483966      174.35938    
SHAKE stats (type/ave/delta/count) on step 130000
Bond:   1   0.999994  4.05241e-05      200
Angle:  1   109.47    0.00315894       100
    130000   288.55237      0.58208702     188.83143      0.00037394091  17.667588      171.16384    
    131000   298.98179      0.60781877     200.52607      0.00037394091  23.17569       177.35038    
    132000   315.30263      0.48938463     163.13461      0.00037394091 -23.896982      187.03159    
    133000   265.88042      0.52213457     155.82309      0.00037394091 -1.8921724      157.71527    
    134000   308.20078      0.55999788     181.85297      0.00037394091 -0.96593787     182.81891    
    135000   289.97375      0.55782376     176.31445      0.00037394091  4.3074794      172.00697    
    136000   303.67468      0.54036675     173.40549      0.00037394091 -6.7286245      180.13411    
    137000   297.94763      0.43898495     152.72497      0.00037394091 -24.011969      176.73693    
    138000   292.11899      0.64892172     195.27489      0.00037394091  21.995398      173.27949    
    139000   293.59409      0.51647697     155.36689      0.00037394091 -18.787602      174.1545     
SHAKE stats (type/ave/delta/count) on step 140000
Bond:   1   1.00002   0.000147032      200
Angle:  1   109.469   0.0133803        100
    140000   335.96918      0.46741404     167.69815      0.00037394091 -31.592452      199.2906     
    141000   307.02989      0.48994248     152.52103      0.00037394091 -29.603327      182.12436    
    142000   331.19867      0.60754492     201.07759      0.00037394091  4.6167735      196.46082    
    143000   326.73875      0.54432891     191.19689      0.00037394091 -2.6183949      193.81528    
    144000   293.87769      0.54147105     172.32681      0.00037394091 -1.9959068      174.32272    
    145000   313.23761      0.52742304     182.94866      0.00037394091 -2.8580057      185.80666    
    146000   301.1521       0.45522262     159.84585      0.00037394091 -18.791918      178.63777    
    147000   313.80842      0.48795466     164.55157      0.00037394091 -21.593682      186.14525    
    148000   309.48797      0.64621478     209.36528      0.00037394091  25.782836      183.58244    
    149000   261.47015      0.51045404     154.07148      0.00037394091 -1.027692       155.09918    
SHAKE stats (type/ave/delta/count) on step 150000
Bond:   1   1         2.11552e-05      200
Angle:  1   109.47    0.00225679       100
    150000   305.6531       0.53248696     192.77894      0.00037394091  11.471266      181.30767    
    151000   298.80977      0.46637632     170.81179      0.00037394091 -6.4365533      177.24834    
    152000   283.95218      0.5390548      176.23346      0.00037394091  7.7983695      168.43509    
    153000   307.42988      0.4953522      177.93308      0.00037394091 -4.428542       182.36162    
    154000   281.11112      0.54388294     179.06835      0.00037394091  12.318519      166.74983    
    155000   294.81394      0.49088987     154.90935      0.00037394091 -19.968741      174.87809    
    156000   258.07671      0.54501397     154.2798       0.00037394091  1.1935458      153.08625    
    157000   276.87044      0.56847201     165.58034      0.00037394091  1.3459979      164.23434    
    158000   311.87265      0.54192885     172.57414      0.00037394091 -12.422855      184.99699    
    159000   274.97854      0.53818322     138.35869      0.00037394091 -24.753413      163.1121     
SHAKE stats (type/ave/delta/count) on step 160000
Bond:   1   1.00001   3.03883e-05      200
Angle:  1   109.47    0.00397472       100
    160000   311.15038      0.52068957     181.15918      0.00037394091 -3.4093794      184.56856    
    161000   305.87058      0.65563204     201.33002      0.00037394091  19.893338      181.43668    
    162000   291.83208      0.60495677     190.2859       0.00037394091  17.176602      173.1093     
    163000   277.69326      0.59797466     190.48329      0.00037394091  25.76087       164.72242    
    164000   293.76587      0.50634208     174.86569      0.00037394091  0.60929597     174.25639    
    165000   297.10338      0.51711784     172.49422      0.00037394091 -3.7419159      176.23614    
    166000   298.15928      0.45695565     154.10077      0.00037394091 -22.761714      176.86248    
    167000   324.53065      0.51808145     189.1891       0.00037394091 -3.3163789      192.50548    
    168000   310.03959      0.50955908     166.53663      0.00037394091 -17.373028      183.90965    
    169000   286.94111      0.60522218     206.08558      0.00037394091  35.877509      170.20807    
SHAKE stats (type/ave/delta/count) on step 170000
Bond:   1   1         2.00581e-05      200
Angle:  1   109.47    0.00174272       100
    170000   305.10126      0.47350873     168.482        0.00037394091 -12.498335      180.98033    
    171000   309.36617      0.69228273     200.32227      0.00037394091  16.812075      183.5102     
    172000   325.07352      0.52490889     189.77003      0.00037394091 -3.0574728      192.8275     
    173000   328.24805      0.50451693     190.35337      0.00037394091 -4.3572042      194.71057    
    174000   304.01841      0.65342456     164.00761      0.00037394091 -16.330399      180.33801    
    175000   304.6503       0.49309573     176.61993      0.00037394091 -4.0928974      180.71283    
    176000   291.52216      0.55815635     179.40417      0.00037394091  6.4787054      172.92546    
    177000   301.99689      0.54368696     175.89328      0.00037394091 -3.2455922      179.13888    
    178000   322.80023      0.56867509     206.42064      0.00037394091  14.941616      191.47903    
    179000   330.08717      0.59922842     209.25659      0.00037394091  13.455087      195.8015     
SHAKE stats (type/ave/delta/count) on step 180000
Bond:   1   0.999997  1.55911e-05      200
Angle:  1   109.47    0.00159557       100
    180000   293.6813       0.57373285     169.37675      0.00037394091 -4.8294766      174.20623    
    181000   293.64522      0.46980931     169.75315      0.00037394091 -4.4316759      174.18483    
    182000   292.54591      0.51601995     156.0388       0.00037394091 -17.493935      173.53273    
    183000   298.55573      0.4732245      160.90734      0.00037394091 -16.190307      177.09765    
    184000   312.44487      0.53362305     166.75292      0.00037394091 -18.583509      185.33643    
    185000   303.30822      0.62124857     170.00199      0.00037394091 -9.9147485      179.91673    
    186000   307.97293      0.54308222     191.01224      0.00037394091  8.3284877      182.68375    
    187000   315.77119      0.53479983     197.50525      0.00037394091  10.195713      187.30953    
    188000   294.44383      0.53318729     183.35618      0.00037394091  8.6976319      174.65854    
    189000   314.7825       0.55041155     195.47941      0.00037394091  8.7563506      186.72306    
SHAKE stats (type/ave/delta/count) on step 190000
Bond:   1   0.999996  2.20432e-05      200
Angle:  1   109.47    0.002133         100
    190000   294.58529      0.60561023     168.20306      0.00037394091 -6.539398       174.74245    
    191000   283.42272      0.53869817     171.55345      0.00037394091  3.4324201      168.12103    
    192000   331.61453      0.51476954     191.68027      0.00037394091 -5.027236       196.70751    
    193000   295.87835      0.50838367     171.39925      0.00037394091 -4.1102215      175.50947    
    194000   315.54361      0.51435534     177.92444      0.00037394091 -9.2501032      187.17454    
    195000   326.7158       0.5674888      176.02641      0.00037394091 -17.77526       193.80167    
    196000   317.60596      0.58131097     182.51461      0.00037394091 -5.8832729      188.39788    
    197000   309.07023      0.43030294     146.71747      0.00037394091 -36.617182      183.33465    
    198000   314.76044      0.51638952     157.58665      0.00037394091 -29.123328      186.70998    
    199000   309.66406      0.50138601     165.56453      0.00037394091 -18.122368      183.6869     
SHAKE stats (type/ave/delta/count) on step 200000
Bond:   1   0.999985  7.04049e-05      200
Angle:  1   109.47    0.00953011       100
    200000   283.98812      0.52097916     162.2679       0.00037394091 -6.1885122      168.45641    
    201000   268.49575      0.51713076     161.50166      0.00037394091  2.2350318      159.26663    
    202000   280.94818      0.53999279     159.14957      0.00037394091 -7.5036134      166.65318    
    203000   276.98481      0.398622       136.26989      0.00037394091 -28.032295      164.30218    
    204000   293.47391      0.55050654     156.62135      0.00037394091 -17.461858      174.0832     
    205000   306.78079      0.60508827     209.91387      0.00037394091  27.937273      181.9766     
    206000   301.21939      0.48686455     172.32766      0.00037394091 -6.3500163      178.67768    
    207000   323.4015       0.50830915     196.71682      0.00037394091  4.8811334      191.83569    
    208000   278.21045      0.53740853     152.68403      0.00037394091 -12.345179      165.02921    
    209000   319.09526      0.42991262     151.76355      0.00037394091 -37.517758      189.28131    
SHAKE stats (type/ave/delta/count) on step 210000
Bond:   1   0.999982  9.98619e-05      200
Angle:  1   109.471   0.0100754        100
    210000   278.65694      0.48024375     163.24643      0.00037394091 -2.0476217      165.29406    
    211000   315.43118      0.59888874     212.85949      0.00037394091  25.751647      187.10784    
    212000   286.9947       0.48542319     175.07717      0.00037394091  4.837314       170.23986    
    213000   314.17393      0.72119213     180.58932      0.00037394091 -5.7727471      186.36207    
    214000   316.10864      0.44132686     158.30463      0.00037394091 -29.205077      187.5097     
    215000   275.89012      0.57917331     169.28073      0.00037394091  5.6278963      163.65283    
    216000   284.26266      0.52338835     176.65742      0.00037394091  8.0381558      168.61927    
    217000   280.98047      0.50954932     162.56423      0.00037394091 -4.1081051      166.67233    
    218000   302.95656      0.636253       173.81278      0.00037394091 -5.8953557      179.70814    
    219000   297.67428      0.53865909     166.50956      0.00037394091 -10.065224      176.57478    
SHAKE stats (type/ave/delta/count) on step 220000
Bond:   1   0.999987  7.86708e-05      200
Angle:  1   109.47    0.00839691       100
    220000   285.22049      0.50655832     138.38584      0.00037394091 -30.801596      169.18743    
    221000   311.93833      0.67930497     227.68889      0.00037394091  42.652936      185.03595    
    222000   297.5976       0.63469028     172.99892      0.00037394091 -3.530385       176.5293     
    223000   317.86142      0.54014757     184.29911      0.00037394091 -4.2503102      188.54942    
    224000   283.51705      0.52619084     163.7792       0.00037394091 -4.3977816      168.17698    
    225000   297.35189      0.41661747     122.64511      0.00037394091 -53.738441      176.38355    
    226000   328.29151      0.5138435      189.3168       0.00037394091 -5.4195499      194.73635    
    227000   289.59913      0.52799989     164.39217      0.00037394091 -7.3925948      171.78476    
    228000   271.49178      0.48802984     157.50235      0.00037394091 -3.5414696      161.04382    
    229000   324.04384      0.58566266     191.20452      0.00037394091 -1.0121936      192.21672    
SHAKE stats (type/ave/delta/count) on step 230000
Bond:   1   0.999996  2.4971e-05       200
Angle:  1   109.47    0.00199996       100
    230000   298.61568      0.55160026     171.24304      0.00037394091 -5.8901665      177.13321    
    231000   276.27024      0.54970774     168.76914      0.00037394091  4.8908291      163.87831    
    232000   297.7295       0.46862152     157.76643      0.00037394091 -18.841109      176.60754    
    233000   303.29168      0.55740501     174.61213      0.00037394091 -5.2947944      179.90692    
    234000   272.01402      0.54504603     155.67564      0.00037394091 -5.6779669      161.3536     
    235000   286.98697      0.56469114     163.66451      0.00037394091 -6.5707615      170.23527    
    236000   293.68025      0.52813588     169.04371      0.00037394091 -5.1618929      174.2056     
    237000   286.19009      0.58987939     174.77341      0.00037394091  5.0108263      169.76258    
    238000   287.52913      0.61664346     169.60412      0.00037394091 -0.95275388     170.55688    
    239000   276.57226      0.58798488     157.43454      0.00037394091 -6.6229199      164.05746    
SHAKE stats (type/ave/delta/count) on step 240000
Bond:   1   0.999993  3.71652e-05      200
Angle:  1   109.47    0.0041073        100
    240000   290.56597      0.44773342     132.46812      0.00037394091 -39.890146      172.35827    
    241000   326.25861      0.45160948     174.21141      0.00037394091 -19.31906       193.53047    
    242000   316.67147      0.56805644     199.36683      0.00037394091  11.523269      187.84356    
    243000   303.26929      0.49819031     158.11325      0.00037394091 -21.780393      179.89364    
    244000   314.40752      0.51941288     177.31157      0.00037394091 -9.189066       186.50063    
    245000   304.28188      0.5064009      172.0592       0.00037394091 -8.4350884      180.49429    
    246000   278.14755      0.57560239     152.64183      0.00037394091 -12.350068      164.9919     
    247000   290.79146      0.4666149      147.35761      0.00037394091 -25.13441       172.49203    
    248000   299.30854      0.5801962      187.99133      0.00037394091  10.447131      177.5442     
    249000   289.78632      0.63370921     166.18341      0.00037394091 -5.7123837      171.8958     
SHAKE stats (type/ave/delta/count) on step 250000
Bond:   1   0.999991  5.70753e-05      200
Angle:  1   109.47    0.00369615       100
    250000   289.21968      0.61836563     175.41704      0.00037394091  3.8573659      171.55967    
    251000   315.69319      0.59949154     194.82163      0.00037394091  7.558361       187.26327    
    252000   319.84529      0.37457613     157.47735      0.00037394091 -32.248857      189.72621    
    253000   321.16635      0.49942451     184.82408      0.00037394091 -5.6857549      190.50984    
    254000   291.91539      0.53145151     165.28545      0.00037394091 -7.8732688      173.15872    
    255000   306.02427      0.49989869     162.59654      0.00037394091 -18.931304      181.52784    
    256000   273.1422       0.54074913     171.57541      0.00037394091  9.5525952      162.02282    
    257000   277.44745      0.58813752     161.68675      0.00037394091 -2.8898568      164.57661    
    258000   292.13593      0.56984549     155.80836      0.00037394091 -17.481183      173.28954    
    259000   298.90683      0.44491222     166.63236      0.00037394091 -10.673554      177.30591    
SHAKE stats (type/ave/delta/count) on step 260000
Bond:   1   1.00001   3.30032e-05      200
Angle:  1   109.47    0.00290218       100
    260000   308.42945      0.51243923     168.26819      0.00037394091 -14.686358      182.95455    
    261000   292.22211      0.50847073     165.09375      0.00037394091 -8.2469129      173.34066    
    262000   322.09429      0.44972254     170.72453      0.00037394091 -20.335748      191.06028    
    263000   323.40166      0.49310932     189.288        0.00037394091 -2.5477805      191.83578    
    264000   301.77531      0.45570095     174.54792      0.00037394091 -4.4595221      179.00744    
    265000   284.53186      0.56246571     158.24531      0.00037394091 -10.533642      168.77895    
    266000   298.93081      0.45368088     166.25308      0.00037394091 -11.06705       177.32013    
    267000   321.43578      0.43388862     182.87832      0.00037394091 -7.7913351      190.66966    
    268000   295.70532      0.49236799     165.41095      0.00037394091 -9.9958871      175.40684    
    269000   284.88094      0.45219039     158.89517      0.00037394091 -10.09085       168.98602    
SHAKE stats (type/ave/delta/count) on step 270000
Bond:   1   0.999992  5.1549e-05       200
Angle:  1   109.47    0.00398391       100
    270000   283.30434      0.61679483     162.25485      0.00037394091 -5.7959604      168.05081    
    271000   280.35993      0.41631427     150.79973      0.00037394091 -15.504512      166.30424    
    272000   335.90037      0.44796038     152.92512      0.00037394091 -46.324661      199.24979    
    273000   277.57514      0.42492295     145.56251      0.00037394091 -19.089842      164.65235    
    274000   296.85952      0.51649407     160.65107      0.00037394091 -15.440421      176.09149    
    275000   320.23318      0.49537523     193.59172      0.00037394091  3.6354159      189.9563     
    276000   292.64933      0.67092297     181.30788      0.00037394091  7.7138018      173.59408    
    277000   322.81739      0.56417805     195.28456      0.00037394091  3.7953509      191.48921    
    278000   332.86397      0.53131917     192.04454      0.00037394091 -5.4041034      197.44865    
    279000   303.24422      0.57084708     194.4211       0.00037394091  14.542332      179.87877    
SHAKE stats (type/ave/delta/count) on step 280000
Bond:   1   1.00001   5.47379e-05      200
Angle:  1   109.47    0.00471665       100
    280000   312.01969      0.51049287     161.70163      0.00037394091 -23.382582      185.08421    
    281000   310.45664      0.51111806     139.1281       0.00037394091 -45.02894       184.15704    
    282000   286.27436      0.43834455     146.05975      0.00037394091 -23.752818      169.81257    
    283000   315.68461      0.43581484     159.43026      0.00037394091 -27.827914      187.25818    
    284000   300.57312      0.44467218     160.51219      0.00037394091 -17.78214       178.29433    
    285000   298.16076      0.50062661     148.71839      0.00037394091 -28.144966      176.86336    
    286000   297.40471      0.44167334     160.95729      0.00037394091 -15.457593      176.41488    
    287000   293.1548       0.41295969     155.94769      0.00037394091 -17.946228      173.89392    
    288000   309.96176      0.47145236     165.62523      0.00037394091 -18.238255      183.86349    
    289000   307.80834      0.55961924     159.14352      0.00037394091 -23.442602      182.58612    
SHAKE stats (type/ave/delta/count) on step 290000
Bond:   1   1.00001   7.66983e-05      200
Angle:  1   109.47    0.00827807       100
    290000   317.90896      0.51112333     166.75406      0.00037394091 -21.823553      188.57762    
    291000   301.02995      0.47947952     163.61564      0.00037394091 -14.949662      178.56531    
    292000   312.69132      0.42266745     154.09596      0.00037394091 -31.386651      185.48261    
    293000   279.89056      0.57618776     153.45912      0.00037394091 -12.566701      166.02582    
    294000   302.98988      0.4490914      166.17686      0.00037394091 -13.551035      179.7279     
    295000   288.66206      0.4839556      166.37484      0.00037394091 -4.8540653      171.22891    
    296000   321.02865      0.45101409     179.90286      0.00037394091 -10.5253        190.42816    
    297000   296.58674      0.48051533     164.13738      0.00037394091 -11.7923        175.92968    
    298000   299.50648      0.48389903     149.32501      0.00037394091 -28.336599      177.66161    
    299000   290.8705       0.5393376      159.18235      0.00037394091 -13.356561      172.53891    
SHAKE stats (type/ave/delta/count) on step 300000
Bond:   1   0.999998  1.65973e-05      200
Angle:  1   109.47    0.00110332       100
    300000   297.94811      0.66788735     177.70394      0.00037394091  0.96671514     176.73722    
    301000   310.23301      0.4051023      168.42887      0.00037394091 -15.595522      184.02439    
    302000   299.61462      0.3574351      143.03631      0.00037394091 -34.689448      177.72576    
    303000   297.8181       0.57227878     159.63593      0.00037394091 -17.024173      176.6601     
    304000   280.98648      0.50854925     135.53318      0.00037394091 -31.142715      166.67589    
    305000   290.57791      0.44748684     149.66491      0.00037394091 -22.700449      172.36536    
    306000   309.93467      0.5140259      170.15438      0.00037394091 -13.693043      183.84742    
    307000   295.08333      0.50665378     155.15114      0.00037394091 -19.886739      175.03788    
    308000   295.29507      0.41831932     159.52631      0.00037394091 -15.637179      175.16349    
    309000   290.62829      0.50700657     174.17192      0.00037394091  1.776678       172.39524    
SHAKE stats (type/ave/delta/count) on step 310000
Bond:   1   0.999998  1.46757e-05      200
Angle:  1   109.47    0.00134548       100
    310000   297.05432      0.59233562     173.51196      0.00037394091 -2.6950803      176.20704    
    311000   307.636        0.55008262     170.98237      0.00037394091 -11.501517      182.48389    
    312000   326.05677      0.63798015     192.23095      0.00037394091 -1.1797949      193.41075    
    313000   285.56669      0.58686915     158.65107      0.00037394091 -10.741717      169.39279    
    314000   292.8685       0.46054992     145.00692      0.00037394091 -28.717172      173.72409    
    315000   298.88096      0.35812174     132.60658      0.00037394091 -44.683983      177.29056    
    316000   300.30695      0.44246778     166.52483      0.00037394091 -11.611602      178.13644    
    317000   271.32094      0.42383083     153.53643      0.00037394091 -7.4060483      160.94248    
    318000   306.52471      0.45064071     155.97288      0.00037394091 -25.851813      181.82469    
    319000   330.43977      0.50055509     183.01598      0.00037394091 -12.994676      196.01066    
SHAKE stats (type/ave/delta/count) on step 320000
Bond:   1   1.00002   0.000173148      200
Angle:  1   109.469   0.0134162        100
    320000   304.77418      0.36742426     147.04544      0.00037394091 -33.740877      180.78632    
    321000   284.46         0.55880398     152.97831      0.00037394091 -15.75801       168.73632    
    322000   302.15695      0.51911443     163.56134      0.00037394091 -15.672481      179.23382    
    323000   293.39519      0.53711215     152.14289      0.00037394091 -21.893619      174.03651    
    324000   325.05127      0.56236568     186.25803      0.00037394091 -6.5562712      192.8143     
    325000   279.82387      0.4784151      139.35085      0.00037394091 -26.63541       165.98626    
    326000   279.25667      0.47945923     162.36164      0.00037394091 -3.2881712      165.64981    
    327000   316.40591      0.44873719     162.57633      0.00037394091 -25.109707      187.68604    
    328000   300.01614      0.41142031     152.2651       0.00037394091 -25.698833      177.96393    
    329000   295.90388      0.50719723     190.56358      0.00037394091  15.038966      175.52462    
SHAKE stats (type/ave/delta/count) on step 330000
Bond:   1   1         2.48939e-05      200
Angle:  1   109.47    0.00264581       100
    330000   305.64235      0.40597576     126.47264      0.00037394091 -54.828654      181.3013     
    331000   328.3782       0.43098548     174.72588      0.00037394091 -20.061895      194.78778    
    332000   306.82459      0.52269374     165.73415      0.00037394091 -16.268424      182.00258    
    333000   280.37267      0.52483501     165.66493      0.00037394091 -0.64686797     166.3118     
    334000   309.81846      0.47541999     167.04871      0.00037394091 -16.72978       183.77849    
    335000   325.90089      0.63610544     187.58496      0.00037394091 -5.7333214      193.31828    
    336000   303.76372      0.47607443     149.70233      0.00037394091 -30.484602      180.18693    
    337000   325.86776      0.58179048     180.53648      0.00037394091 -12.762147      193.29863    
    338000   310.69168      0.46512669     173.86407      0.00037394091 -10.432397      184.29646    
    339000   318.01698      0.59717663     176.76964      0.00037394091 -11.872056      188.6417     
SHAKE stats (type/ave/delta/count) on step 340000
Bond:   1   0.999988  8.79955e-05      200
Angle:  1   109.47    0.00616935       100
    340000   288.69505      0.4330852      145.5431       0.00037394091 -25.705379      171.24848    
    341000   258.98241      0.38717563     139.08036      0.00037394091 -14.54314       153.6235     
    342000   299.97491      0.50219531     165.75418      0.00037394091 -12.185298      177.93948    
    343000   325.28588      0.58094182     182.91811      0.00037394091 -10.035355      192.95347    
    344000   323.2122       0.64582199     193.36957      0.00037394091  1.6461721      191.7234     
    345000   283.46219      0.53846813     147.68281      0.00037394091 -20.461626      168.14444    
    346000   326.12737      0.57355691     195.13516      0.00037394091  1.6825407      193.45262    
    347000   297.71842      0.61249319     162.03639      0.00037394091 -14.56458       176.60097    
    348000   321.46516      0.53820836     185.74118      0.00037394091 -4.9459145      190.68709    
    349000   293.99016      0.61593332     154.69975      0.00037394091 -19.689687      174.38944    
SHAKE stats (type/ave/delta/count) on step 350000
Bond:   1   0.999983  0.000145798      200
Angle:  1   109.471   0.0125076        100
    350000   277.97038      0.61171601     148.72004      0.00037394091 -16.166764      164.88681    
    351000   277.65404      0.60984523     147.97991      0.00037394091 -16.719248      164.69915    
    352000   320.91639      0.54263136     178.67139      0.00037394091 -11.690183      190.36157    
    353000   285.82434      0.54328671     160.65185      0.00037394091 -8.893776       169.54562    
    354000   289.52839      0.52531472     163.04114      0.00037394091 -8.7016624      171.7428     
    355000   293.5334       0.72236464     158.67977      0.00037394091 -15.438726      174.11849    
    356000   317.41019      0.45971703     154.90243      0.00037394091 -33.379324      188.28175    
    357000   278.00047      0.41062077     142.41461      0.00037394091 -22.490044      164.90465    
    358000   310.45451      0.4932119      165.74392      0.00037394091 -18.411866      184.15578    
    359000   306.58524      0.48419593     149.62438      0.00037394091 -32.236221      181.8606     
SHAKE stats (type/ave/delta/count) on step 360000
Bond:   1   1.00001   5.52287e-05      200
Angle:  1   109.47    0.00319157       100
    360000   309.3549       0.38885074     145.61127      0.00037394091 -37.892237      183.50351    
    361000   302.90205      0.49817853     142.82349      0.00037394091 -36.852307      179.6758     
    362000   339.14258      0.51085376     174.41981      0.00037394091 -26.753194      201.173      
    363000   296.92408      0.45744968     146.87465      0.00037394091 -29.255137      176.12978    
    364000   312.58926      0.51008607     161.72852      0.00037394091 -23.693552      185.42208    
    365000   290.95224      0.46612802     136.41701      0.00037394091 -36.170386      172.5874     
    366000   307.94532      0.61008428     163.06036      0.00037394091 -19.607021      182.66738    
    367000   275.87411      0.52695999     114.76534      0.00037394091 -48.877998      163.64333    
    368000   326.44533      0.5330181      167.71206      0.00037394091 -25.929176      193.64123    
    369000   321.02586      0.5798228      167.13776      0.00037394091 -23.288743      190.4265     
SHAKE stats (type/ave/delta/count) on step 370000
Bond:   1   0.999985  0.000134189      200
Angle:  1   109.471   0.00842198       100
    370000   280.58497      0.38113722     130.37166      0.00037394091 -36.066065      166.43773    
    371000   269.97241      0.35920031     116.31292      0.00037394091 -43.82964       160.14256    
    372000   257.14929      0.48565385     135.93148      0.00037394091 -16.604646      152.53612    
    373000   312.989        0.47450394     159.99817      0.00037394091 -25.661025      185.65919    
    374000   287.43387      0.61551849     151.7935       0.00037394091 -18.706868      170.50037    
    375000   308.48567      0.55988343     170.56715      0.00037394091 -12.420747      182.9879     
    376000   300.32786      0.52430564     172.67872      0.00037394091 -5.4701217      178.14884    
    377000   290.31604      0.63604792     150.84765      0.00037394091 -21.362368      172.21002    
    378000   307.49881      0.54757033     169.89324      0.00037394091 -12.509268      182.40251    
    379000   307.11748      0.55187942     175.31797      0.00037394091 -6.8583496      182.17632    
SHAKE stats (type/ave/delta/count) on step 380000
Bond:   1   0.999998  1.50921e-05      200
Angle:  1   109.47    0.00167516       100
    380000   299.17075      0.55340703     169.07062      0.00037394091 -8.3918408      177.46246    
    381000   319.02117      0.63061728     192.29961      0.00037394091  3.0622463      189.23736    
    382000   277.16387      0.49988813     136.21679      0.00037394091 -28.191603      164.4084     
    383000   304.9643       0.60993023     185.27856      0.00037394091  4.37947        180.89909    
    384000   276.1544       0.5992178      158.00932      0.00037394091 -5.8002733      163.8096     
    385000   303.01289      0.53754528     177.2702       0.00037394091 -2.4713554      179.74155    
    386000   293.47197      0.49949101     185.53892      0.00037394091  11.456862      174.08205    
    387000   288.13465      0.51861165     151.55171      0.00037394091 -19.364349      170.91606    
    388000   301.36469      0.49018465     165.27339      0.00037394091 -13.490479      178.76387    
    389000   334.14697      0.51955317     187.13678      0.00037394091 -11.072921      198.2097     
SHAKE stats (type/ave/delta/count) on step 390000
Bond:   1   0.999988  0.000107112      200
Angle:  1   109.471   0.00991583       100
    390000   282.80064      0.53256696     157.46514      0.00037394091 -10.286887      167.75202    
    391000   278.53456      0.50460079     160.77059      0.00037394091 -4.450881       165.22147    
    392000   327.98029      0.50919503     180.0377       0.00037394091 -14.514043      194.55174    
    393000   296.38355      0.43236116     149.12039      0.00037394091 -26.688762      175.80915    
    394000   322.05665      0.52915899     172.5128       0.00037394091 -18.525155      191.03795    
    395000   288.42528      0.42165335     157.08575      0.00037394091 -14.002704      171.08846    
    396000   297.33063      0.5836186      143.47702      0.00037394091 -32.893918      176.37094    
    397000   291.73298      0.67919362     142.26282      0.00037394091 -30.787702      173.05052    
    398000   290.77509      0.49925916     143.83541      0.00037394091 -28.646905      172.48232    
    399000   320.39782      0.48361702     153.15633      0.00037394091 -36.897639      190.05397    
SHAKE stats (type/ave/delta/count) on step 400000
Bond:   1   1.00001   6.4272e-05       200
Angle:  1   109.47    0.00678905       100
    400000   313.5168       0.52480306     140.88644      0.00037394091 -45.085825      185.97227    
    401000   281.98962      0.51082853     138.19049      0.00037394091 -29.080458      167.27094    
    402000   312.68725      0.63673641     171.68074      0.00037394091 -13.799459      185.4802     
    403000   327.55457      0.46600384     166.33099      0.00037394091 -27.968224      194.29921    
    404000   262.92575      0.33831692     115.67925      0.00037394091 -40.283359      155.96261    
    405000   294.65518      0.41623151     144.80575      0.00037394091 -29.978168      174.78391    
    406000   313.74671      0.39591437     150.9112       0.00037394091 -35.197451      186.10865    
    407000   312.44556      0.36768954     166.31503      0.00037394091 -19.021797      185.33683    
    408000   289.27118      0.41440846     150.22425      0.00037394091 -21.365971      171.59022    
    409000   293.4749       0.52343184     158.38084      0.00037394091 -15.702954      174.08379    
SHAKE stats (type/ave/delta/count) on step 410000
Bond:   1   1.00001   5.49449e-05      200
Angle:  1   109.47    0.00600905       100
    410000   304.9426       0.4954133      160.11002      0.00037394091 -20.776202      180.88622    
    411000   300.5919       0.51926743     165.43995      0.00037394091 -12.86551       178.30546    
    412000   305.15027      0.6198082      148.19836      0.00037394091 -32.811048      181.0094     
    413000   278.27508      0.57580293     156.98459      0.00037394091 -8.0829539      165.06754    
    414000   294.45575      0.33327062     128.57668      0.00037394091 -46.088936      174.66561    
    415000   304.11326      0.48216776     149.29616      0.00037394091 -31.098106      180.39427    
    416000   279.09098      0.38248588     118.95104      0.00037394091 -46.600488      165.55152    
    417000   283.15482      0.47325068     148.50782      0.00037394091 -19.454297      167.96211    
    418000   314.36155      0.46647099     169.76416      0.00037394091 -16.709204      186.47336    
    419000   316.30571      0.28111845     160.74312      0.00037394091 -26.883484      187.6266     
SHAKE stats (type/ave/delta/count) on step 420000
Bond:   1   0.999984  0.00013011       200
Angle:  1   109.47    0.00923575       100
    420000   277.84901      0.35430459     120.99412      0.00037394091 -43.820694      164.81481    
    421000   299.21096      0.38329626     146.89936      0.00037394091 -30.586959      177.48632    
    422000   315.25186      0.60733039     162.57131      0.00037394091 -24.430171      187.00148    
    423000   299.60377      0.39827058     152.71058      0.00037394091 -25.008743      177.71932    
    424000   337.84076      0.55277333     173.63972      0.00037394091 -26.761064      200.40079    
    425000   297.04554      0.43596796     144.35083      0.00037394091 -31.851002      176.20183    
    426000   313.85386      0.37140665     138.10417      0.00037394091 -48.068047      186.17221    
    427000   323.95709      0.72731268     179.37691      0.00037394091 -12.788343      192.16525    
    428000   291.20273      0.40475265     126.12891      0.00037394091 -46.60707       172.73598    
    429000   307.43339      0.45651495     161.31785      0.00037394091 -21.045863      182.36371    
SHAKE stats (type/ave/delta/count) on step 430000
Bond:   1   0.999982  0.000122137      200
Angle:  1   109.47    0.0105562        100
    430000   278.76738      0.36839457     130.55284      0.00037394091 -34.806732      165.35957    
    431000   286.14696      0.58883415     142.45889      0.00037394091 -27.278112      169.737      
    432000   318.45931      0.45969023     167.84996      0.00037394091 -21.054119      188.90408    
    433000   298.75533      0.44220875     147.05321      0.00037394091 -30.162832      177.21605    
    434000   324.10283      0.55928348     176.5831       0.00037394091 -15.668609      192.25171    
    435000   296.01997      0.62326154     167.69679      0.00037394091 -7.8966864      175.59348    
    436000   313.75993      0.52239352     171.41373      0.00037394091 -14.702757      186.11649    
    437000   271.55107      0.30462045     136.41883      0.00037394091 -24.660157      161.07899    
    438000   319.82265      0.50698191     188.04518      0.00037394091 -1.6676056      189.71279    
    439000   287.96627      0.58436862     147.0431       0.00037394091 -23.773078      170.81618    
SHAKE stats (type/ave/delta/count) on step 440000
Bond:   1   0.999987  7.69365e-05      200
Angle:  1   109.47    0.0108277        100
    440000   263.47137      0.46827851     142.83047      0.00037394091 -13.455788      156.28626    
    441000   310.55801      0.53588818     168.63378      0.00037394091 -15.583388      184.21717    
    442000   310.42519      0.48243408     157.86839      0.00037394091 -26.269993      184.13838    
    443000   305.76197      0.56428191     158.24501      0.00037394091 -23.127244      181.37225    
    444000   271.2962       0.51926552     149.06464      0.00037394091 -11.863163      160.92781    
    445000   300.37968      0.57688049     170.06636      0.00037394091 -8.1132222      178.17958    
    446000   296.00392      0.45779753     155.18393      0.00037394091 -20.400028      175.58396    
    447000   281.84237      0.75192633     159.55983      0.00037394091 -7.6237672      167.1836     
    448000   288.43382      0.41713962     146.20839      0.00037394091 -24.88513       171.09352    
    449000   311.3118       0.45378969     167.31474      0.00037394091 -17.349563      184.66431    
SHAKE stats (type/ave/delta/count) on step 450000
Bond:   1   0.999975  0.000131722      200
Angle:  1   109.471   0.0216454        100
    450000   274.50212      0.5898794      141.4777       0.00037394091 -21.351793      162.8295     
    451000   325.12446      0.42122181     176.11977      0.00037394091 -16.737943      192.85772    
    452000   302.95882      0.5682257      175.2945       0.00037394091 -4.4149789      179.70947    
    453000   297.07956      0.67487335     175.51915      0.00037394091 -0.70285463     176.22201    
    454000   319.53194      0.70154209     173.44106      0.00037394091 -16.099279      189.54034    
    455000   317.64655      0.57167222     176.85809      0.00037394091 -11.563873      188.42196    
    456000   300.00769      0.58997838     173.38227      0.00037394091 -4.5766543      177.95892    
    457000   289.36979      0.43584994     143.6325       0.00037394091 -28.016215      171.64872    
    458000   315.5944       0.51739438     174.78092      0.00037394091 -12.42375       187.20467    
    459000   286.34813      0.53622687     163.38062      0.00037394091 -6.4757098      169.85633    
SHAKE stats (type/ave/delta/count) on step 460000
Bond:   1   1.00002   0.000138329      200
Angle:  1   109.469   0.0165734        100
    460000   321.34844      0.44428771     176.1546       0.00037394091 -14.463252      190.61785    
    461000   282.07281      0.49325837     137.07094      0.00037394091 -30.249353      167.32029    
    462000   318.54074      0.64031051     180.17858      0.00037394091 -8.7737975      188.95238    
    463000   301.981        0.46471267     148.87274      0.00037394091 -30.256711      179.12945    
    464000   277.3757       0.41588759     141.56286      0.00037394091 -22.97119       164.53405    
    465000   283.21256      0.53449198     172.61949      0.00037394091  4.6231204      167.99636    
    466000   290.33268      0.53106003     151.90544      0.00037394091 -20.314452      172.21989    
    467000   303.07434      0.53774982     158.80772      0.00037394091 -20.970277      179.778      
    468000   339.58171      0.46502473     181.11789      0.00037394091 -20.315597      201.43349    
    469000   321.55603      0.60293865     171.22216      0.00037394091 -19.51883       190.74099    
SHAKE stats (type/ave/delta/count) on step 470000
Bond:   1   0.999999  3.74455e-06      200
Angle:  1   109.47    0.000544091      100
    470000   299.96568      0.6432977      151.09163      0.00037394091 -26.842367      177.934      
    471000   306.9657       0.48003462     164.42862      0.00037394091 -17.657665      182.08628    
    472000   330.40045      0.6103068      198.6248       0.00037394091  2.6374591      195.98734    
    473000   300.83379      0.40720165     142.76397      0.00037394091 -35.684981      178.44895    
    474000   301.54519      0.51271172     137.37407      0.00037394091 -41.496872      178.87094    
    475000   283.17937      0.55830647     151.50373      0.00037394091 -16.472945      167.97668    
    476000   315.85671      0.49759882     172.29695      0.00037394091 -15.063313      187.36027    
    477000   310.98202      0.34250737     113.43651      0.00037394091 -71.032174      184.46869    
    478000   272.44569      0.42592904     135.88569      0.00037394091 -25.723971      161.60966    
    479000   299.60151      0.40048649     141.42381      0.00037394091 -36.294179      177.71798    
SHAKE stats (type/ave/delta/count) on step 480000
Bond:   1   0.999999  7.1312e-06       200
Angle:  1   109.47    0.000969525      100
    480000   298.6655       0.57926854     167.26103      0.00037394091 -9.9017318      177.16276    
    481000   299.46487      0.51878807     151.15442      0.00037394091 -26.482514      177.63693    
    482000   294.23178      0.53097305     181.79157      0.00037394091  7.2588159      174.53276    
    483000   306.83938      0.46329526     156.52686      0.00037394091 -25.484494      182.01135    
    484000   315.71183      0.52104793     175.88311      0.00037394091 -11.391212      187.27432    
    485000   294.52741      0.51380508     157.39378      0.00037394091 -17.314339      174.70812    
    486000   299.36363      0.45673895     146.46557      0.00037394091 -31.111309      177.57688    
    487000   297.05091      0.49003393     164.68232      0.00037394091 -11.522692      176.20501    
    488000   296.78544      0.41622934     151.06443      0.00037394091 -24.98312       176.04755    
    489000   290.74488      0.50966531     174.52377      0.00037394091  2.0593709      172.4644     
SHAKE stats (type/ave/delta/count) on step 490000
Bond:   1   1         1.36348e-07      200
Angle:  1   109.47    1.25848e-05      100
    490000   300.16565      0.4560573      153.13495      0.00037394091 -24.917669      178.05262    
    491000   278.19666      0.45103402     172.57734      0.00037394091  7.5563118      165.02103    
    492000   282.95328      0.44166852     140.91948      0.00037394091 -26.923087      167.84256    
    493000   269.28423      0.53328005     153.18968      0.00037394091 -6.5446573      159.73434    
    494000   301.37101      0.59082228     169.3568       0.00037394091 -9.4108195      178.76762    
    495000   303.93828      0.50420532     150.93529      0.00037394091 -29.355179      180.29047    
    496000   280.55158      0.47395001     155.40814      0.00037394091 -11.009783      166.41792    
    497000   299.88004      0.50711512     161.32091      0.00037394091 -16.562291      177.8832     
    498000   286.66047      0.52508587     156.67178      0.00037394091 -13.369824      170.0416     
    499000   305.89251      0.51938697     169.01494      0.00037394091 -12.434742      181.44969    
SHAKE stats (type/ave/delta/count) on step 500000
Bond:   1   1.00002   0.000105073      200
Angle:  1   109.469   0.0100402        100
    500000   318.13178      0.58634285     177.11554      0.00037394091 -11.594252      188.70979    
    501000   295.607        0.63133025     163.49535      0.00037394091 -11.853164      175.34851    
    502000   308.73866      0.60884997     171.67827      0.00037394091 -11.459702      183.13797    
    503000   343.88954      0.47227186     183.99485      0.00037394091 -19.993965      203.98881    
    504000   301.82726      0.47463148     168.41446      0.00037394091 -10.623793      179.03825    
    505000   303.72592      0.58985142     147.56303      0.00037394091 -32.601475      180.16451    
    506000   298.57274      0.44951697     166.24688      0.00037394091 -10.860856      177.10773    
    507000   292.21895      0.50626543     176.15482      0.00037394091  2.8160373      173.33878    
    508000   286.71128      0.57631641     166.55427      0.00037394091 -3.5174739      170.07174    
    509000   294.75822      0.58690587     176.11439      0.00037394091  1.2693604      174.84503    
SHAKE stats (type/ave/delta/count) on step 510000
Bond:   1   1         1.7277e-05       200
Angle:  1   109.47    0.00156186       100
    510000   303.33282      0.60524809     184.66048      0.00037394091  4.7291542      179.93133    
    511000   299.67581      0.34871063     122.36661      0.00037394091 -55.395446      177.76205    
    512000   290.0332       0.5029444      159.98542      0.00037394091 -12.056821      172.04224    
    513000   302.34472      0.45763833     179.96849      0.00037394091  0.62328498     179.3452     
    514000   313.6531       0.39437649     174.37205      0.00037394091 -11.681072      186.05312    
    515000   298.51189      0.46501917     148.7106       0.00037394091 -28.361044      177.07164    
    516000   295.01472      0.43215845     169.63877      0.00037394091 -5.3584214      174.99719    
    517000   285.5808       0.31389427     129.72568      0.00037394091 -39.675479      169.40116    
    518000   289.33538      0.58898397     162.50617      0.00037394091 -9.122134       171.62831    
    519000   299.83596      0.44636042     145.31686      0.00037394091 -32.540195      177.85706    
SHAKE stats (type/ave/delta/count) on step 520000
Bond:   1   0.999972  0.000207138      200
Angle:  1   109.471   0.0157348        100
    520000   287.07105      0.66134844     168.09994      0.00037394091 -2.1852123      170.28515    
    521000   302.40714      0.45725913     130.64589      0.00037394091 -48.736334      179.38223    
    522000   293.50662      0.31620448     122.69699      0.00037394091 -51.405615      174.10261    
    523000   322.71558      0.32435936     157.70942      0.00037394091 -33.719395      191.42881    
    524000   316.81346      0.46564851     198.29208      0.00037394091  10.364288      187.92779    
    525000   335.35331      0.38965999     173.47149      0.00037394091 -25.453791      198.92528    
    526000   273.73487      0.47224199     143.66969      0.00037394091 -18.704692      162.37438    
    527000   308.99467      0.43071125     155.4061       0.00037394091 -27.883727      183.28983    
    528000   324.9702       0.35861793     166.58658      0.00037394091 -26.179632      192.76621    
    529000   302.89026      0.57993039     160.53047      0.00037394091 -19.138331      179.66881    
SHAKE stats (type/ave/delta/count) on step 530000
Bond:   1   1         1.06939e-05      200
Angle:  1   109.47    0.00172673       100
    530000   307.32861      0.50885296     167.97791      0.00037394091 -14.323646      182.30155    
    531000   306.29163      0.55307965     160.79188      0.00037394091 -20.894552      181.68643    
    532000   277.72782      0.55867862     143.14144      0.00037394091 -21.601482      164.74292    
    533000   312.80007      0.60851401     181.89169      0.00037394091 -3.6554304      185.54712    
    534000   295.21886      0.53003306     159.47029      0.00037394091 -15.647981      175.11828    
    535000   289.59915      0.52557609     171.77464      0.00037394091 -0.010131691    171.78477    
    536000   323.59089      0.55217842     163.12422      0.00037394091 -28.82381       191.94803    
    537000   325.5715       0.38916707     168.36022      0.00037394091 -24.762671      193.12289    
    538000   289.33534      0.43608776     123.08257      0.00037394091 -48.545716      171.62828    
    539000   289.13963      0.441709       151.86659      0.00037394091 -19.645598      171.51219    
SHAKE stats (type/ave/delta/count) on step 540000
Bond:   1   0.999991  7.92834e-05      200
Angle:  1   109.47    0.00773505       100
    540000   282.42659      0.58861431     157.34591      0.00037394091 -10.184232      167.53015    
    541000   297.7953       0.54021345     164.95288      0.00037394091 -11.693694      176.64657    
    542000   310.35129      0.49991663     186.88925      0.00037394091  2.7946996      184.09455    
    543000   305.186        0.578208       156.37941      0.00037394091 -24.651193      181.0306     
    544000   289.48305      0.3622657      150.89417      0.00037394091 -20.821738      171.71591    
    545000   289.49399      0.49081988     160.90244      0.00037394091 -10.819946      171.72239    
    546000   323.7819       0.35122678     176.27069      0.00037394091 -15.790648      192.06133    
    547000   299.15386      0.44782518     172.05244      0.00037394091 -5.400007       177.45245    
    548000   292.37533      0.47462284     157.38491      0.00037394091 -16.046636      173.43155    
    549000   318.96624      0.52669408     146.35774      0.00037394091 -42.847034      189.20478    
SHAKE stats (type/ave/delta/count) on step 550000
Bond:   1   0.999996  2.23707e-05      200
Angle:  1   109.47    0.00294138       100
    550000   295.40803      0.63372032     169.37738      0.00037394091 -5.8531123      175.23049    
    551000   320.07921      0.52870367     184.72101      0.00037394091 -5.1439664      189.86497    
    552000   320.76622      0.48198014     177.87802      0.00037394091 -12.394477      190.27249    
    553000   301.71999      0.36396539     152.35901      0.00037394091 -26.615616      178.97462    
    554000   316.12205      0.47432845     187.80411      0.00037394091  0.28645488     187.51766    
    555000   288.34954      0.42411906     150.56528      0.00037394091 -20.47825       171.04352    
    556000   300.56271      0.48211937     173.50084      0.00037394091 -4.7873083      178.28815    
    557000   301.31675      0.29460368     145.26773      0.00037394091 -33.467708      178.73543    
    558000   317.15965      0.48723522     171.92307      0.00037394091 -16.210075      188.13314    
    559000   320.38863      0.44000116     173.7474       0.00037394091 -16.301111      190.04851    
SHAKE stats (type/ave/delta/count) on step 560000
Bond:   1   0.99999   5.41122e-05      200
Angle:  1   109.47    0.00882998       100
    560000   281.58823      0.37813081     142.62804      0.00037394091 -24.404804      167.03285    
    561000   297.14874      0.38911511     168.15127      0.00037394091 -8.1117758      176.26304    
    562000   286.29385      0.38357525     152.16995      0.00037394091 -17.654175      169.82413    
    563000   286.88809      0.39042848     158.90671      0.00037394091 -11.269913      170.17662    
    564000   293.43131      0.47173287     174.4059       0.00037394091  0.34796494     174.05794    
    565000   306.57072      0.45197926     171.96469      0.00037394091 -9.887298       181.85199    
    566000   297.00942      0.52764467     176.45583      0.00037394091  0.2754261      176.1804     
    567000   283.61897      0.39229805     150.78815      0.00037394091 -17.449288      168.23744    
    568000   316.58356      0.44329972     181.26109      0.00037394091 -6.5303239      187.79141    
    569000   331.49179      0.45290663     190.95695      0.00037394091 -5.6777474      196.6347     
SHAKE stats (type/ave/delta/count) on step 570000
Bond:   1   0.999988  7.45337e-05      200
Angle:  1   109.47    0.00948888       100
    570000   288.12302      0.40455091     159.68013      0.00037394091 -11.229027      170.90916    
    571000   292.18888      0.40065541     151.08974      0.00037394091 -22.231214      173.32095    
    572000   310.22145      0.40747029     155.59488      0.00037394091 -28.422654      184.01753    
    573000   257.36402      0.48288622     164.66848      0.00037394091  12.00498       152.6635     
    574000   310.23169      0.49827841     181.4776       0.00037394091 -2.5460034      184.02361    
    575000   302.56366      0.42364781     175.99717      0.00037394091 -3.4779111      179.47508    
    576000   327.80538      0.45288813     203.8855       0.00037394091  9.4375091      194.44799    
    577000   257.73604      0.39216488     133.02347      0.00037394091 -19.860707      152.88417    
    578000   329.68324      0.45293405     177.14213      0.00037394091 -18.419772      195.5619     
    579000   278.68319      0.40731879     157.9856       0.00037394091 -7.3240264      165.30963    
SHAKE stats (type/ave/delta/count) on step 580000
Bond:   1   1         2.35307e-06      200
Angle:  1   109.47    0.000323268      100
    580000   289.5158       0.35738609     155.78781      0.00037394091 -15.94752       171.73533    
    581000   323.34176      0.41605276     196.13224      0.00037394091  4.3319927      191.80025    
    582000   322.47273      0.48657928     175.19348      0.00037394091 -16.091281      191.28476    
    583000   293.77091      0.35689132     160.60629      0.00037394091 -13.653089      174.25938    
    584000   291.55197      0.48936402     160.41767      0.00037394091 -12.525481      172.94315    
    585000   314.74244      0.44693116     163.30747      0.00037394091 -23.391833      186.6993     
    586000   300.62518      0.34086125     153.9046       0.00037394091 -24.42061       178.32521    
    587000   304.4947       0.41382505     156.59416      0.00037394091 -24.026369      180.62053    
    588000   294.76744      0.46543661     178.09462      0.00037394091  3.2441115      174.85051    
    589000   292.87108      0.48713843     160.9408       0.00037394091 -12.784823      173.72562    
SHAKE stats (type/ave/delta/count) on step 590000
Bond:   1   0.999995  3.20447e-05      200
Angle:  1   109.47    0.00458733       100
    590000   285.24452      0.42127068     156.09078      0.00037394091 -13.110906      169.20169    
    591000   266.58998      0.43510625     148.15143      0.00037394091 -9.9847381      158.13617    
    592000   317.1126       0.49426818     194.49905      0.00037394091  6.3938156      188.10523    
    593000   289.27517      0.49527142     139.83846      0.00037394091 -31.754132      171.59259    
    594000   306.16023      0.47590464     169.43034      0.00037394091 -12.17815       181.60849    
    595000   327.20138      0.48754641     178.01517      0.00037394091 -16.074543      194.08971    
    596000   286.01617      0.41092284     157.38428      0.00037394091 -12.275139      169.65941    
    597000   286.2198       0.44458895     159.43515      0.00037394091 -10.345056      169.7802     
    598000   287.46505      0.42436292     159.31817      0.00037394091 -11.200695      170.51886    
    599000   298.23886      0.48333244     157.84943      0.00037394091 -19.060256      176.90968    
SHAKE stats (type/ave/delta/count) on step 600000
Bond:   1   0.999984  8.3317e-05       200
Angle:  1   109.471   0.0106004        100
    600000   285.25619      0.57244698     163.97296      0.00037394091 -5.2356524      169.20861    
    601000   319.66073      0.43042503     176.67689      0.00037394091 -12.939847      189.61673    
    602000   312.72437      0.39194573     159.42016      0.00037394091 -26.082054      185.50222    
    603000   267.84013      0.5823964      170.16413      0.00037394091  11.286401      158.87773    
    604000   316.45944      0.58157975     205.04926      0.00037394091  17.331465      187.71779    
    605000   299.5362       0.41298578     148.30435      0.00037394091 -29.37489       177.67924    
    606000   264.833        0.51486774     144.42632      0.00037394091 -12.667634      157.09395    
    607000   317.88494      0.49492607     159.30346      0.00037394091 -29.259914      188.56337    
    608000   311.35754      0.44690985     164.00289      0.00037394091 -20.688551      184.69144    
    609000   306.92308      0.47416464     163.69363      0.00037394091 -18.367368      182.061      
SHAKE stats (type/ave/delta/count) on step 610000
Bond:   1   0.999988  7.34698e-05      200
Angle:  1   109.47    0.00761786       100
    610000   276.13392      0.47813331     158.24439      0.00037394091 -5.553056       163.79745    
    611000   281.37056      0.48628926     149.62146      0.00037394091 -17.282264      166.90373    
    612000   321.82891      0.57599446     221.67982      0.00037394091  30.776959      190.90286    
    613000   319.30678      0.47908863     194.90093      0.00037394091  5.4941492      189.40678    
    614000   290.7007       0.49958559     177.80216      0.00037394091  5.3639731      172.43819    
    615000   284.63651      0.44690722     157.3026       0.00037394091 -11.538421      168.84102    
    616000   273.45641      0.4183711      149.55618      0.00037394091 -12.653027      162.2092     
    617000   283.35004      0.39819156     154.8366       0.00037394091 -13.241313      168.07792    
    618000   335.50463      0.40741968     186.84667      0.00037394091 -12.168374      199.01504    
    619000   301.41359      0.4451276      179.15305      0.00037394091  0.36017468     178.79288    
SHAKE stats (type/ave/delta/count) on step 620000
Bond:   1   0.999979  0.000193634      200
Angle:  1   109.471   0.0148941        100
    620000   267.1942       0.44072703     148.65611      0.00037394091 -9.8384687      158.49458    
    621000   306.11443      0.45990053     171.19485      0.00037394091 -10.38648       181.58133    
    622000   285.57282      0.44664781     162.26772      0.00037394091 -7.1287061      169.39643    
    623000   309.47205      0.51002325     177.32563      0.00037394091 -6.2473725      183.573      
    624000   294.00766      0.56245669     183.19022      0.00037394091  8.7904006      174.39982    
    625000   308.08136      0.51606518     195.00953      0.00037394091  12.261465      182.74807    
    626000   302.27022      0.45088271     162.96552      0.00037394091 -16.335496      179.30101    
    627000   302.4431       0.4606898      151.6718       0.00037394091 -27.731763      179.40356    
    628000   279.44662      0.45158006     158.42128      0.00037394091 -7.3412008      165.76248    
    629000   311.83563      0.45191355     167.83832      0.00037394091 -17.136711      184.97503    
SHAKE stats (type/ave/delta/count) on step 630000
Bond:   1   1         6.28487e-07      200
Angle:  1   109.47    7.30717e-05      100
    630000   293.98661      0.49548538     184.1998       0.00037394091  9.8124697      174.38733    
    631000   323.84334      0.44108541     178.40056      0.00037394091 -13.697214      192.09778    
    632000   294.82379      0.48422898     160.26737      0.00037394091 -14.616557      174.88393    
    633000   282.83791      0.46060527     145.28928      0.00037394091 -22.48485       167.77413    
    634000   302.12877      0.48769276     176.89104      0.00037394091 -2.3260602      179.21711    
    635000   298.92911      0.4656432      166.40083      0.00037394091 -10.918292      177.31913    
    636000   280.46627      0.60764771     163.21562      0.00037394091 -3.1517014      166.36732    
    637000   317.10209      0.42448619     171.45174      0.00037394091 -16.647258      188.099      
    638000   311.40648      0.44945876     156.93561      0.00037394091 -27.784855      184.72047    
    639000   298.79192      0.58787819     163.02685      0.00037394091 -14.210905      177.23775    
SHAKE stats (type/ave/delta/count) on step 640000
Bond:   1   1         4.01166e-06      200
Angle:  1   109.47    0.000219839      100
    640000   301.54787      0.39893473     152.45107      0.00037394091 -26.42146       178.87253    
    641000   322.96304      0.29584888     138.72815      0.00037394091 -52.847455      191.5756     
    642000   279.85758      0.53546718     159.68588      0.00037394091 -6.3203725      166.00626    
    643000   273.88132      0.70901364     139.15141      0.00037394091 -23.309843      162.46125    
    644000   287.71187      0.33131745     137.17907      0.00037394091 -33.4862        170.66527    
    645000   305.51562      0.40701923     149.85492      0.00037394091 -31.371196      181.22612    
    646000   310.33865      0.47876281     186.6022       0.00037394091  2.5151432      184.08706    
    647000   341.43413      0.60571077     211.51789      0.00037394091  8.985585       202.53231    
    648000   312.55521      0.73254501     165.63773      0.00037394091 -19.764149      185.40188    
    649000   341.49247      0.41947613     178.70748      0.00037394091 -23.859433      202.56691    
SHAKE stats (type/ave/delta/count) on step 650000
Bond:   1   0.999991  4.31495e-05      200
Angle:  1   109.47    0.00478377       100
    650000   279.68192      0.55385261     139.09027      0.00037394091 -26.811782      165.90205    
    651000   293.92169      0.74422759     166.10532      0.00037394091 -8.2434983      174.34882    
    652000   327.61321      0.52583408     176.63894      0.00037394091 -17.695059      194.33399    
    653000   310.47147      0.32996852     148.59369      0.00037394091 -35.572148      184.16584    
    654000   253.37857      0.36878936     107.56661      0.00037394091 -42.732789      150.2994     
    655000   314.99716      0.34310768     144.9294       0.00037394091 -41.920997      186.85039    
    656000   280.18815      0.38449115     136.84731      0.00037394091 -29.35503       166.20234    
    657000   307.74519      0.47884921     186.46547      0.00037394091  3.9168091      182.54866    
    658000   315.81152      0.40340147     181.21489      0.00037394091 -6.1185724      187.33346    
    659000   313.99133      0.46317551     151.12504      0.00037394091 -35.128721      186.25376    
SHAKE stats (type/ave/delta/count) on step 660000
Bond:   1   0.999987  6.78806e-05      200
Angle:  1   109.471   0.00923755       100
    660000   285.05804      0.5005042      139.67871      0.00037394091 -29.412364      169.09107    
    661000   308.76055      0.41402818     149.27798      0.00037394091 -33.872978      183.15096    
    662000   281.07789      0.46425324     139.99625      0.00037394091 -26.733869      166.73012    
    663000   304.50452      0.42623729     161.59269      0.00037394091 -19.033669      180.62636    
    664000   309.07787      0.4275663      164.19246      0.00037394091 -19.146719      183.33918    
    665000   271.33664      0.51532948     142.5504       0.00037394091 -18.401393      160.95179    
    666000   297.79076      0.38400524     155.96853      0.00037394091 -20.675357      176.64388    
    667000   273.32264      0.42694973     143.24845      0.00037394091 -18.881406      162.12985    
    668000   280.46719      0.45572752     159.57459      0.00037394091 -6.7932764      166.36786    
    669000   288.71011      0.46140149     164.24538      0.00037394091 -7.0120297      171.25741    
SHAKE stats (type/ave/delta/count) on step 670000
Bond:   1   0.999994  4.5874e-05       200
Angle:  1   109.47    0.00310479       100
    670000   295.08787      0.39998523     153.98584      0.00037394091 -21.054741      175.04058    
    671000   282.70394      0.42345419     132.82929      0.00037394091 -34.865366      167.69466    
    672000   301.68577      0.49447196     162.53397      0.00037394091 -16.420361      178.95433    
    673000   287.58519      0.48690404     137.12006      0.00037394091 -33.470073      170.59013    
    674000   297.80636      0.52008205     148.788        0.00037394091 -27.865138      176.65314    
    675000   307.93432      0.49013459     165.07685      0.00037394091 -17.584003      182.66085    
    676000   321.01349      0.46893494     172.9784       0.00037394091 -17.440768      190.41917    
    677000   318.43182      0.44757736     172.93825      0.00037394091 -15.949515      188.88777    
    678000   310.77526      0.37304852     161.17742      0.00037394091 -23.168621      184.34604    
    679000   269.02888      0.55716343     149.39044      0.00037394091 -10.192436      159.58288    
SHAKE stats (type/ave/delta/count) on step 680000
Bond:   1   0.999993  4.0108e-05       200
Angle:  1   109.47    0.00266906       100
    680000   280.60733      0.44011853     145.38208      0.00037394091 -21.068907      166.45099    
    681000   293.86394      0.38573351     158.33496      0.00037394091 -15.979606      174.31456    
    682000   293.75635      0.42644955     139.28599      0.00037394091 -34.964756      174.25074    
    683000   272.42863      0.45620842     143.99905      0.00037394091 -17.600487      161.59954    
    684000   312.67928      0.45339838     166.41348      0.00037394091 -19.061989      185.47547    
    685000   278.56968      0.37876529     145.58038      0.00037394091 -19.661914      165.2423     
    686000   316.31177      0.48998237     166.25885      0.00037394091 -21.371344      187.6302     
    687000   301.86541      0.37451006     149.71585      0.00037394091 -29.345036      179.06089    
    688000   285.86744      0.37679254     150.93585      0.00037394091 -18.635345      169.57119    
    689000   279.28236      0.57905159     121.99266      0.00037394091 -43.672388      165.66504    
SHAKE stats (type/ave/delta/count) on step 690000
Bond:   1   1         7.26065e-07      200
Angle:  1   109.47    4.81061e-05      100
    690000   297.46995      0.46739505     157.77947      0.00037394091 -18.674107      176.45358    
    691000   285.5541       0.49784343     165.11106      0.00037394091 -4.2742624      169.38532    
    692000   289.18645      0.37351302     125.01533      0.00037394091 -46.524639      171.53996    
    693000   274.09029      0.42660504     115.44664      0.00037394091 -47.138567      162.58521    
    694000   284.94061      0.4131852      150.47289      0.00037394091 -18.548526      169.02141    
    695000   269.88995      0.44713808     132.67931      0.00037394091 -27.414329      160.09364    
    696000   305.4477       0.47425004     181.26743      0.00037394091  0.081590777    181.18583    
    697000   285.17057      0.41195334     152.68263      0.00037394091 -16.475191      169.15782    
    698000   310.71854      0.48477275     184.4896       0.00037394091  0.17720214     184.31239    
    699000   301.73689      0.42824183     150.1094       0.00037394091 -28.875256      178.98465    
SHAKE stats (type/ave/delta/count) on step 700000
Bond:   1   1.00001   6.90133e-05      200
Angle:  1   109.47    0.00721643       100
    700000   312.02243      0.36232916     156.32676      0.00037394091 -28.75908       185.08584    
    701000   311.82456      0.52376027     168.43023      0.00037394091 -16.538241      184.96847    
    702000   286.76418      0.61553439     183.32895      0.00037394091  13.225831      170.10312    
    703000   326.87492      0.38513577     150.84887      0.00037394091 -43.047191      193.89606    
    704000   306.08976      0.40325142     172.86161      0.00037394091 -8.7050795      181.56669    
    705000   295.71135      0.57045335     145.9841       0.00037394091 -29.426313      175.41041    
    706000   284.50108      0.43015362     139.45029      0.00037394091 -29.310403      168.76069    
    707000   295.93855      0.56379485     151.91074      0.00037394091 -23.634446      175.54519    
    708000   301.13899      0.56610488     156.68401      0.00037394091 -21.945977      178.62999    
    709000   312.68799      0.60110627     153.34697      0.00037394091 -32.133666      185.48064    
SHAKE stats (type/ave/delta/count) on step 710000
Bond:   1   0.999981  0.000105896      200
Angle:  1   109.47    0.0114145        100
    710000   276.57714      0.64698999     142.74513      0.00037394091 -21.315226      164.06036    
    711000   328.95241      0.50504768     163.3482       0.00037394091 -31.780179      195.12838    
    712000   280.06881      0.5303596      125.79261      0.00037394091 -40.338941      166.13155    
    713000   281.13535      0.45369058     133.53079      0.00037394091 -33.23341       166.7642     
    714000   307.88307      0.56965268     210.23968      0.00037394091  27.609231      182.63045    
    715000   264.08645      0.35671772     141.14452      0.00037394091 -15.506598      156.65112    
    716000   291.01749      0.4571616      119.01973      0.00037394091 -53.606376      172.6261     
    717000   309.28682      0.41721791     146.63079      0.00037394091 -36.832336      183.46313    
    718000   293.81749      0.49759113     125.18486      0.00037394091 -49.102153      174.28701    
    719000   303.42126      0.52434006     150.81311      0.00037394091 -29.170672      179.98378    
SHAKE stats (type/ave/delta/count) on step 720000
Bond:   1   1         1.20535e-05      200
Angle:  1   109.47    0.00101671       100
    720000   300.61069      0.53386927     160.55121      0.00037394091 -17.765401      178.31661    
    721000   300.51243      0.36357371     150.6618       0.00037394091 -27.596527      178.25832    
    722000   263.79988      0.38668447     159.555        0.00037394091  3.0738692      156.48113    
    723000   294.01048      0.41463234     146.53286      0.00037394091 -27.868626      174.40149    
    724000   306.71265      0.50918335     156.46323      0.00037394091 -25.472948      181.93618    
    725000   323.79745      0.32948829     167.44069      0.00037394091 -24.629872      192.07056    
    726000   312.28707      0.4937068      157.63269      0.00037394091 -27.610133      185.24282    
    727000   274.8673       0.44056162     129.49478      0.00037394091 -33.551329      163.04611    
    728000   280.78127      0.46946341     138.42539      0.00037394091 -28.128778      166.55417    
    729000   286.87711      0.40683574     133.27055      0.00037394091 -36.89956       170.17011    
SHAKE stats (type/ave/delta/count) on step 730000
Bond:   1   0.999991  5.44174e-05      200
Angle:  1   109.47    0.00501685       100
    730000   290.14         0.38867487     125.62292      0.00037394091 -46.482675      172.10559    
    731000   316.23202      0.43455405     158.02258      0.00037394091 -29.560312      187.58289    
    732000   305.97767      0.41458352     157.02932      0.00037394091 -24.470877      181.5002     
    733000   314.43911      0.59126644     155.01033      0.00037394091 -31.509038      186.51937    
    734000   319.07505      0.33980448     151.74068      0.00037394091 -37.528641      189.26932    
    735000   280.816        0.4533371      136.09239      0.00037394091 -30.482379      166.57477    
    736000   324.14876      0.28916828     137.96184      0.00037394091 -54.317113      192.27895    
    737000   279.43599      0.52988567     133.07947      0.00037394091 -32.676709      165.75617    
    738000   270.76139      0.49589758     132.67639      0.00037394091 -27.934175      160.61056    
    739000   292.00843      0.24230692     95.069759      0.00037394091 -78.144154      173.21391    
SHAKE stats (type/ave/delta/count) on step 740000
Bond:   1   0.999978  0.000173407      200
Angle:  1   109.471   0.0123243        100
    740000   277.68287      0.39908356     133.23212      0.00037394091 -31.484144      164.71626    
    741000   270.70131      0.50228686     145.51788      0.00037394091 -15.05705       160.57493    
    742000   295.34066      0.44195121     158.44789      0.00037394091 -16.742636      175.19053    
    743000   289.60889      0.55015463     160.40967      0.00037394091 -11.380881      171.79055    
    744000   287.20891      0.48947435     147.9689       0.00037394091 -22.398026      170.36693    
    745000   279.01381      0.50603893     140.57017      0.00037394091 -24.93558       165.50575    
    746000   300.00532      0.56807793     155.54085      0.00037394091 -22.416668      177.95752    
    747000   273.36026      0.36445674     137.76421      0.00037394091 -24.387952      162.15216    
    748000   299.68932      0.39531912     157.50102      0.00037394091 -20.269053      177.77007    
    749000   272.53869      0.41418758     145.49423      0.00037394091 -16.170597      161.66483    
SHAKE stats (type/ave/delta/count) on step 750000
Bond:   1   1.00002   0.000131581      200
Angle:  1   109.469   0.0127788        100
    750000   323.02811      0.45501221     152.01135      0.00037394091 -39.602856      191.6142     
    751000   272.94602      0.47284777     128.77378      0.00037394091 -33.132673      161.90645    
    752000   301.82369      0.4792404      155.5374       0.00037394091 -23.498737      179.03614    
    753000   341.51807      0.49377277     148.8907       0.00037394091 -53.691396      202.5821     
    754000   291.52237      0.41721364     154.92208      0.00037394091 -18.00351       172.92559    
    755000   307.21495      0.58652623     171.17477      0.00037394091 -11.059361      182.23413    
    756000   277.71001      0.65181871     151.7289       0.00037394091 -13.003461      164.73236    
    757000   307.25539      0.64453786     160.06524      0.00037394091 -22.192884      182.25812    
    758000   292.85874      0.30756383     136.86873      0.00037394091 -36.849566      173.7183     
    759000   288.75605      0.42543939     142.70158      0.00037394091 -28.583075      171.28466    
SHAKE stats (type/ave/delta/count) on step 760000
Bond:   1   0.99999   5.07844e-05      200
Angle:  1   109.47    0.00564234       100
    760000   282.63919      0.56406396     162.2628       0.00037394091 -5.3934506      167.65625    
    761000   285.69667      0.44552977     148.29974      0.00037394091 -21.170151      169.4699     
    762000   285.25187      0.48628629     131.00569      0.00037394091 -38.200357      169.20605    
    763000   304.1837       0.45965681     154.5231       0.00037394091 -25.912949      180.43605    
    764000   289.72058      0.48990922     144.95902      0.00037394091 -26.897785      171.8568     
    765000   317.94936      0.46220543     149.81575      0.00037394091 -38.785829      188.60158    
    766000   298.40803      0.37639782     147.98464      0.00037394091 -29.02539       177.01003    
    767000   300.02475      0.45895708     152.42327      0.00037394091 -25.545774      177.96904    
    768000   308.61395      0.44129282     142.06735      0.00037394091 -40.996644      183.06399    
    769000   280.6286       0.49017337     141.01662      0.00037394091 -25.446986      166.46361    
SHAKE stats (type/ave/delta/count) on step 770000
Bond:   1   1.00001   4.62291e-05      200
Angle:  1   109.47    0.00573961       100
    770000   318.1903       0.57883175     151.70648      0.00037394091 -37.038018      188.7445     
    771000   277.05557      0.50615201     133.87384      0.00037394091 -30.470318      164.34415    
    772000   298.06785      0.49686655     140.69808      0.00037394091 -36.110171      176.80825    
    773000   283.23046      0.4117268      143.40789      0.00037394091 -24.599094      168.00698    
    774000   306.56967      0.36468989     155.66574      0.00037394091 -26.185625      181.85137    
    775000   303.37774      0.33740374     141.57876      0.00037394091 -38.379219      179.95797    
    776000   296.40244      0.43535801     149.76261      0.00037394091 -26.057746      175.82036    
    777000   308.15875      0.50151713     124.83002      0.00037394091 -57.963959      182.79398    
    778000   304.33041      0.56401773     167.25581      0.00037394091 -13.267264      180.52308    
    779000   290.38056      0.42635253     144.66071      0.00037394091 -27.587579      172.24829    
SHAKE stats (type/ave/delta/count) on step 780000
Bond:   1   1.00002   0.000128697      200
Angle:  1   109.47    0.01221          100
    780000   321.53621      0.41858747     152.62873      0.00037394091 -38.100501      190.72924    
    781000   337.29665      0.47448648     167.61253      0.00037394091 -32.465504      200.07803    
    782000   307.20859      0.48261419     152.8919       0.00037394091 -29.338457      182.23036    
    783000   279.39885      0.5723135      143.39474      0.00037394091 -22.339407      165.73414    
    784000   282.9104       0.50116054     140.01657      0.00037394091 -27.800565      167.81713    
    785000   290.29396      0.37070991     145.57759      0.00037394091 -26.61933       172.19692    
    786000   282.63548      0.56986238     142.04733      0.00037394091 -25.60673       167.65406    
    787000   323.98787      0.4723783      162.6012       0.00037394091 -29.58231       192.18351    
    788000   279.81063      0.65667505     154.22978      0.00037394091 -11.748627      165.97841    
    789000   301.36151      0.40587973     153.36034      0.00037394091 -25.401641      178.76198    
SHAKE stats (type/ave/delta/count) on step 790000
Bond:   1   1.00008   0.000523002      200
Angle:  1   109.468   0.0396611        100
    790000   395.83007      0.44632986     214.43331      0.00037394091 -20.365648      234.79896    
    791000   283.68621      0.44237063     118.68798      0.00037394091 -49.589343      168.27732    
    792000   317.56014      0.52486318     157.9995       0.00037394091 -30.371199      188.3707     
    793000   290.58312      0.5869543      153.06346      0.00037394091 -19.304989      172.36845    
    794000   282.38924      0.52546326     137.85481      0.00037394091 -29.653179      167.50799    
    795000   283.37768      0.54283944     131.35169      0.00037394091 -36.742626      168.09431    
    796000   316.32138      0.43862577     145.02064      0.00037394091 -42.615257      187.6359     
    797000   317.17311      0.63163438     160.29116      0.00037394091 -27.849959      188.14112    
    798000   298.8698       0.45582815     147.28304      0.00037394091 -30.000909      177.28395    
    799000   282.3162       0.59473893     160.00873      0.00037394091 -7.4559291      167.46466    
SHAKE stats (type/ave/delta/count) on step 800000
Bond:   1   1.00002   0.000129634      200
Angle:  1   109.469   0.0110302        100
    800000   322.44385      0.52770265     162.54731      0.00037394091 -28.720317      191.26763    
    801000   295.23845      0.40937951     144.0198       0.00037394091 -31.110096      175.1299     
    802000   284.24066      0.47705939     125.94461      0.00037394091 -42.661607      168.60621    
    803000   261.07269      0.29260662     110.30747      0.00037394091 -44.555939      154.86341    
    804000   319.09476      0.46701682     141.82947      0.00037394091 -47.451538      189.28101    
    805000   273.69979      0.448458       116.30867      0.00037394091 -46.044899      162.35357    
    806000   294.19933      0.4042297      142.54848      0.00037394091 -31.965033      174.51351    
    807000   322.57762      0.42530993     160.64194      0.00037394091 -30.705041      191.34698    
    808000   274.1159       0.48076427     132.92664      0.00037394091 -29.673755      162.6004     
    809000   300.72305      0.58414426     146.83743      0.00037394091 -31.545833      178.38326    
SHAKE stats (type/ave/delta/count) on step 810000
Bond:   1   0.999983  0.000117844      200
Angle:  1   109.47    0.0100154        100
    810000   267.92514      0.30134951     127.8299       0.00037394091 -31.098253      158.92815    
    811000   276.13407      0.29919639     126.64373      0.00037394091 -37.153814      163.79754    
    812000   308.44865      0.38343406     142.85447      0.00037394091 -40.111472      182.96594    
    813000   291.38317      0.42681309     155.76908      0.00037394091 -17.073936      172.84302    
    814000   279.59113      0.517046       148.97255      0.00037394091 -16.87565       165.8482     
    815000   295.73853      0.4050912      158.79569      0.00037394091 -16.63084       175.42653    
    816000   303.66848      0.41633219     151.75602      0.00037394091 -28.374414      180.13044    
    817000   291.26654      0.36691671     132.43688      0.00037394091 -40.336955      172.77384    
    818000   304.00921      0.30649103     165.54125      0.00037394091 -14.791295      180.33255    
    819000   312.92021      0.62513294     192.18504      0.00037394091  6.566652       185.61839    
SHAKE stats (type/ave/delta/count) on step 820000
Bond:   1   0.999972  0.000148884      200
Angle:  1   109.471   0.0155841        100
    820000   280.85968      0.45613307     143.67342      0.00037394091 -22.927261      166.60068    
    821000   298.16504      0.47685328     148.26434      0.00037394091 -28.601557      176.8659     
    822000   309.19736      0.44638719     160.53712      0.00037394091 -22.872939      183.41006    
    823000   292.55892      0.63420061     139.50786      0.00037394091 -34.03259       173.54045    
    824000   282.72238      0.3568321      127.5325       0.00037394091 -40.173096      167.7056     
    825000   320.11241      0.40746337     164.41219      0.00037394091 -25.472472      189.88466    
    826000   311.99105      0.43129192     161.39187      0.00037394091 -23.67536       185.06723    
    827000   325.39067      0.50510986     160.42867      0.00037394091 -32.586959      193.01563    
    828000   318.33781      0.46692806     159.07769      0.00037394091 -29.754308      188.832      
    829000   313.11161      0.53956535     162.14454      0.00037394091 -23.58738       185.73192    
SHAKE stats (type/ave/delta/count) on step 830000
Bond:   1   0.99998   9.53502e-05      200
Angle:  1   109.471   0.0106201        100
    830000   291.95387      0.55839393     158.16879      0.00037394091 -15.012757      173.18155    
    831000   324.7886       0.2870603      149.62109      0.00037394091 -43.037404      192.65849    
    832000   281.74688      0.39191399     142.97792      0.00037394091 -24.149028      167.12695    
    833000   281.67145      0.49995993     135.5653       0.00037394091 -31.516913      167.08221    
    834000   323.72584      0.42910346     170.06548      0.00037394091 -21.962604      192.02808    
    835000   301.48998      0.56396343     147.71436      0.00037394091 -31.123825      178.83819    
    836000   300.80294      0.23442135     141.02755      0.00037394091 -37.403101      178.43065    
    837000   311.91414      0.31663157     147.20368      0.00037394091 -37.817929      185.0216     
    838000   279.17077      0.58879651     128.44772      0.00037394091 -37.151132      165.59885    
    839000   318.0977       0.37852312     159.81353      0.00037394091 -28.876048      188.68958    
SHAKE stats (type/ave/delta/count) on step 840000
Bond:   1   1.00001   3.47083e-05      200
Angle:  1   109.47    0.00368232       100
    840000   298.86658      0.33235926     149.2714       0.00037394091 -28.01064       177.28204    
    841000   284.38652      0.41159854     140.10052      0.00037394091 -28.592213      168.69274    
    842000   271.67294      0.33569552     130.17742      0.00037394091 -30.973861      161.15128    
    843000   306.63537      0.5131177      153.22881      0.00037394091 -28.661525      181.89034    
    844000   318.26257      0.41825378     121.46431      0.00037394091 -67.32307       188.78737    
    845000   315.73413      0.49546631     145.48008      0.00037394091 -41.807474      187.28755    
    846000   324.2208       0.54104147     131.55127      0.00037394091 -60.770408      192.32168    
    847000   309.60803      0.54432602     148.01413      0.00037394091 -35.639531      183.65367    
    848000   291.2176       0.4555879      138.90072      0.00037394091 -33.844081      172.74481    
    849000   330.65445      0.46255859     169.71378      0.00037394091 -26.424228      196.138      
SHAKE stats (type/ave/delta/count) on step 850000
Bond:   1   1         1.13108e-05      200
Angle:  1   109.47    0.00121477       100
    850000   306.93307      0.49230559     133.51437      0.00037394091 -48.552554      182.06692    
    851000   287.78718      0.53281846     164.73875      0.00037394091 -5.9711951      170.70994    
    852000   320.28655      0.49345557     160.51424      0.00037394091 -29.473715      189.98796    
    853000   304.33435      0.40646503     169.3961       0.00037394091 -11.129316      180.52541    
    854000   304.50514      0.56461985     148.90321      0.00037394091 -31.723517      180.62673    
    855000   309.83806      0.45673579     171.00846      0.00037394091 -12.781652      183.79011    
    856000   274.73115      0.36121287     128.24858      0.00037394091 -34.716772      162.96535    
    857000   273.82491      0.45192849     132.91298      0.00037394091 -29.514809      162.42779    
    858000   266.95319      0.27010026     117.40664      0.00037394091 -40.944971      158.35161    
    859000   322.85401      0.53546476     178.5066       0.00037394091 -13.004329      191.51093    
SHAKE stats (type/ave/delta/count) on step 860000
Bond:   1   1.00002   0.000163357      200
Angle:  1   109.469   0.0142603        100
    860000   322.7016       0.40082324     162.08018      0.00037394091 -29.340337      191.42052    
    861000   320.61032      0.39663049     151.55284      0.00037394091 -38.627175      190.18001    
    862000   305.17701      0.46064632     164.6713       0.00037394091 -16.353971      181.02527    
    863000   330.87685      0.5374422      156.40008      0.00037394091 -39.869846      196.26993    
    864000   298.93533      0.47536584     150.24054      0.00037394091 -27.082279      177.32282    
    865000   290.92027      0.47279376     145.91035      0.00037394091 -26.658082      172.56844    
    866000   323.03853      0.4223879      156.61904      0.00037394091 -35.001341      191.62038    
    867000   318.95835      0.33848265     137.55663      0.00037394091 -51.643468      189.2001     
    868000   338.51825      0.41769286     142.4653       0.00037394091 -58.337363      200.80266    
    869000   282.89727      0.57187633     124.05075      0.00037394091 -43.758595      167.80934    
SHAKE stats (type/ave/delta/count) on step 870000
Bond:   1   1.00002   9.68046e-05      200
Angle:  1   109.469   0.00857443       100
    870000   326.13845      0.42200762     153.80215      0.00037394091 -39.657043      193.4592     
    871000   311.67028      0.48846501     157.1443       0.00037394091 -27.732653      184.87695    
    872000   274.60231      0.40095608     118.04023      0.00037394091 -44.848696      162.88893    
    873000   305.21934      0.51455742     135.1382       0.00037394091 -45.912175      181.05037    
    874000   292.41688      0.37199091     134.85734      0.00037394091 -38.598861      173.4562     
    875000   283.69377      0.64627395     159.33089      0.00037394091 -8.9509205      168.28181    
    876000   292.33475      0.35631155     143.16429      0.00037394091 -30.243187      173.40748    
    877000   285.50096      0.38511537     134.78701      0.00037394091 -34.566793      169.3538     
    878000   295.93137      0.42587343     155.0399       0.00037394091 -20.501023      175.54092    
    879000   300.61461      0.43836581     132.96905      0.00037394091 -45.349881      178.31893    
SHAKE stats (type/ave/delta/count) on step 880000
Bond:   1   1.00001   0.000117373      200
Angle:  1   109.47    0.00770546       100
    880000   309.52825      0.48014308     170.32053      0.00037394091 -13.28581       183.60634    
    881000   305.76017      0.32619892     137.39058      0.00037394091 -43.980606      181.37118    
    882000   294.95602      0.60738999     138.90904      0.00037394091 -36.053328      174.96237    
    883000   298.32184      0.36868694     132.94789      0.00037394091 -44.011017      176.95891    
    884000   287.51318      0.50987874     130.08487      0.00037394091 -40.46254       170.54741    
    885000   301.69416      0.79452347     141.91314      0.00037394091 -37.046162      178.95931    
    886000   307.46989      0.30355217     131.59601      0.00037394091 -50.789341      182.38536    
    887000   308.40809      0.56078998     153.746        0.00037394091 -29.195885      182.94188    
    888000   297.06741      0.48195259     151.91765      0.00037394091 -24.297153      176.2148     
    889000   319.50995      0.48384722     168.68168      0.00037394091 -20.845618      189.5273     
SHAKE stats (type/ave/delta/count) on step 890000
Bond:   1   0.999977  0.000119599      200
Angle:  1   109.47    0.0116261        100
    890000   289.65099      0.40113429     100.76547      0.00037394091 -71.050048      171.81552    
    891000   281.93724      0.48894142     148.83786      0.00037394091 -18.402005      167.23987    
    892000   310.78202      0.5246554      174.21616      0.00037394091 -10.133894      184.35005    
    893000   314.53321      0.41132411     151.72829      0.00037394091 -34.846894      186.57519    
    894000   314.58094      0.37909142     155.31449      0.00037394091 -31.289011      186.6035     
    895000   315.09112      0.48714316     162.60111      0.00037394091 -24.305023      186.90613    
    896000   279.55509      0.38322921     133.12056      0.00037394091 -32.706263      165.82682    
    897000   302.73564      0.55427285     143.76795      0.00037394091 -35.809145      179.57709    
    898000   284.00528      0.4837896      151.94412      0.00037394091 -16.522474      168.46659    
    899000   308.42748      0.49561775     153.03116      0.00037394091 -29.922229      182.95338    
SHAKE stats (type/ave/delta/count) on step 900000
Bond:   1   0.999993  3.56388e-05      200
Angle:  1   109.47    0.00310521       100
    900000   296.13114      0.31916922     142.8606       0.00037394091 -32.798828      175.65942    
    901000   275.57268      0.44054973     155.15647      0.00037394091 -8.308064       163.46453    
    902000   312.56187      0.77164539     169.03721      0.00037394091 -16.368618      185.40583    
    903000   291.25183      0.39320155     142.30371      0.00037394091 -30.461401      172.76511    
    904000   308.97166      0.53355716     172.71772      0.00037394091 -10.558462      183.27618    
    905000   299.81846      0.7141455      156.54472      0.00037394091 -21.301955      177.84668    
    906000   254.15887      0.36671629     119.96896      0.00037394091 -30.7933        150.76226    
    907000   286.66602      0.68812252     152.21736      0.00037394091 -17.827526      170.04489    
    908000   310.62089      0.6096207      170.0385       0.00037394091 -14.215977      184.25447    
    909000   290.80454      0.37266139     128.71355      0.00037394091 -43.786234      172.49979    
SHAKE stats (type/ave/delta/count) on step 910000
Bond:   1   0.999991  6.62296e-05      200
Angle:  1   109.47    0.00463408       100
    910000   298.56902      0.58880293     149.60373      0.00037394091 -27.501796      177.10553    
    911000   303.9678       0.46006605     133.74479      0.00037394091 -46.563201      180.30799    
    912000   302.4709       0.54098539     149.91212      0.00037394091 -29.507929      179.42005    
    913000   300.59596      0.40888426     125.78477      0.00037394091 -52.523103      178.30787    
    914000   309.07199      0.53371987     189.81573      0.00037394091  6.4800345      183.33569    
    915000   296.20644      0.43603824     153.08961      0.00037394091 -22.614483      175.70409    
    916000   329.65531      0.50188496     181.59939      0.00037394091 -13.945947      195.54533    
    917000   284.13234      0.49157059     178.44336      0.00037394091  9.9013972      168.54196    
    918000   268.84023      0.65597096     136.58251      0.00037394091 -22.888461      159.47097    
    919000   275.45558      0.43064632     145.09326      0.00037394091 -18.301815      163.39507    
SHAKE stats (type/ave/delta/count) on step 920000
Bond:   1   1.00002   7.29239e-05      200
Angle:  1   109.47    0.00725241       100
    920000   314.21384      0.40946875     161.51345      0.00037394091 -24.87229       186.38574    
    921000   289.048        0.56014397     151.76218      0.00037394091 -19.695662      171.45784    
    922000   319.99842      0.44631939     158.78293      0.00037394091 -31.034119      189.81705    
    923000   281.59944      0.58845753     157.04919      0.00037394091 -9.9902967      167.03949    
    924000   260.64901      0.38141219     113.98337      0.00037394091 -40.628719      154.61209    
    925000   303.52287      0.63954975     133.4632       0.00037394091 -46.580856      180.04406    
    926000   287.61821      0.40198503     126.89546      0.00037394091 -43.714252      170.60972    
    927000   294.50153      0.3924739      141.52236      0.00037394091 -33.170407      174.69277    
    928000   290.6712       0.42403868     111.74361      0.00037394091 -60.677076      172.42069    
    929000   312.27111      0.32699386     137.19027      0.00037394091 -48.043081      185.23335    
SHAKE stats (type/ave/delta/count) on step 930000
Bond:   1   1.00001   4.6269e-05       200
Angle:  1   109.47    0.00413021       100
    930000   314.23781      0.55608097     192.83827      0.00037394091  6.4383097      186.39996    
    931000   299.45364      0.46204843     144.96654      0.00037394091 -32.663722      177.63027    
    932000   310.15159      0.65774479     158.01808      0.00037394091 -25.958009      183.97609    
    933000   306.28925      0.38851542     145.77885      0.00037394091 -35.90617       181.68502    
    934000   283.72939      0.37311821     132.76143      0.00037394091 -35.541508      168.30294    
    935000   325.50511      0.59268305     169.30538      0.00037394091 -23.778134      193.08351    
    936000   291.32625      0.57161286     143.02911      0.00037394091 -29.780148      172.80925    
    937000   298.07777      0.53710308     143.26107      0.00037394091 -33.553058      176.81413    
    938000   313.09923      0.63448968     175.62461      0.00037394091 -10.099965      185.72458    
    939000   281.75428      0.43265634     134.3477       0.00037394091 -32.78364       167.13134    
SHAKE stats (type/ave/delta/count) on step 940000
Bond:   1   0.999992  4.88311e-05      200
Angle:  1   109.47    0.00402473       100
    940000   290.7152       0.48194142     138.37252      0.00037394091 -34.074276      172.44679    
    941000   271.67126      0.43175945     131.39273      0.00037394091 -29.757551      161.15028    
    942000   286.00204      0.55359683     141.42187      0.00037394091 -28.229161      169.65103    
    943000   288.00466      0.59653912     138.25687      0.00037394091 -32.582085      170.83895    
    944000   293.96424      0.54920323     185.6232       0.00037394091  11.249135      174.37406    
    945000   300.08224      0.48381426     125.51633      0.00037394091 -52.486814      178.00314    
    946000   299.66066      0.57258356     143.08978      0.00037394091 -34.663289      177.75307    
    947000   292.49006      0.54214335     151.31681      0.00037394091 -22.182794      173.4996     
    948000   317.98976      0.54448238     165.73533      0.00037394091 -22.890213      188.62554    
    949000   294.9009       0.37344145     133.62357      0.00037394091 -41.306101      174.92967    
SHAKE stats (type/ave/delta/count) on step 950000
Bond:   1   0.999996  4.40222e-05      200
Angle:  1   109.47    0.00200132       100
    950000   295.03161      0.38144635     140.93398      0.00037394091 -34.073221      175.0072     
    951000   334.41712      0.50536019     175.87212      0.00037394091 -22.497822      198.36995    
    952000   276.05789      0.42274666     143.90587      0.00037394091 -19.846485      163.75235    
    953000   296.47681      0.46819572     122.46556      0.00037394091 -53.398911      175.86447    
    954000   281.33742      0.30516579     103.95067      0.00037394091 -62.933397      166.88407    
    955000   318.94476      0.5927443      150.69711      0.00037394091 -38.494924      189.19204    
    956000   300.68494      0.46392967     164.33596      0.00037394091 -14.024689      178.36065    
    957000   313.88525      0.44572871     161.51855      0.00037394091 -24.672275      186.19083    
    958000   300.25629      0.52392454     142.87981      0.00037394091 -35.226578      178.10639    
    959000   327.03011      0.44510907     161.36496      0.00037394091 -32.623153      193.98811    
SHAKE stats (type/ave/delta/count) on step 960000
Bond:   1   1.00002   9.46524e-05      200
Angle:  1   109.47    0.00707484       100
    960000   341.44261      0.60235581     180.93948      0.00037394091 -21.59786       202.53734    
    961000   305.58833      0.52354281     155.24531      0.00037394091 -26.023935      181.26925    
    962000   329.99568      0.52146194     151.02456      0.00037394091 -44.72267       195.74723    
    963000   285.89074      0.42328595     154.93927      0.00037394091 -14.645739      169.58501    
    964000   307.85438      0.38202338     147.10134      0.00037394091 -35.512087      182.61343    
    965000   280.30796      0.53310326     133.54016      0.00037394091 -32.733252      166.27341    
    966000   296.39622      0.43591887     139.18905      0.00037394091 -36.627608      175.81666    
    967000   308.22102      0.49894407     143.8209       0.00037394091 -39.010016      182.83092    
    968000   282.71095      0.36663443     134.67102      0.00037394091 -33.027798      167.69882    
    969000   321.66043      0.42064207     167.56777      0.00037394091 -23.235153      190.80292    
SHAKE stats (type/ave/delta/count) on step 970000
Bond:   1   1.00001   6.18549e-05      200
Angle:  1   109.47    0.00371134       100
    970000   310.3442       0.4464376      149.74651      0.00037394091 -34.343837      184.09034    
    971000   316.00066      0.54635582     178.69469      0.00037394091 -8.750962       187.44565    
    972000   310.69431      0.4405236      204.63951      0.00037394091  20.341483      184.29802    
    973000   298.89674      0.37321472     137.16697      0.00037394091 -40.132959      177.29993    
    974000   304.20969      0.47987939     151.88052      0.00037394091 -28.570952      180.45147    
    975000   285.45558      0.37521051     99.829999      0.00037394091 -69.496886      169.32689    
    976000   298.59084      0.36943166     122.78072      0.00037394091 -54.337755      177.11847    
    977000   270.97         0.45334482     121.8931       0.00037394091 -38.841205      160.73431    
    978000   305.96232      0.55556282     147.53346      0.00037394091 -33.957631      181.49109    
    979000   290.51238      0.47293495     138.34733      0.00037394091 -33.979156      172.32648    
SHAKE stats (type/ave/delta/count) on step 980000
Bond:   1   1.00002   0.00011225       200
Angle:  1   109.47    0.0106927        100
    980000   330.57597      0.59104589     158.66289      0.00037394091 -37.428557      196.09145    
    981000   297.12922      0.5520156      148.15201      0.00037394091 -28.09946       176.25147    
    982000   315.64622      0.53851734     171.23538      0.00037394091 -16.000021      187.2354     
    983000   259.56368      0.48007337     128.17285      0.00037394091 -25.795451      153.9683     
    984000   273.7618       0.22020047     101.76021      0.00037394091 -60.630144      162.39036    
    985000   326.84525      0.49883351     180.92214      0.00037394091 -12.956315      193.87846    
    986000   308.94864      0.51301883     114.15657      0.00037394091 -69.105952      183.26252    
    987000   305.27605      0.43122259     145.54754      0.00037394091 -35.536474      181.08401    
    988000   327.00244      0.59539806     174.52507      0.00037394091 -19.446631      193.9717     
    989000   321.90017      0.61386195     174.57316      0.00037394091 -16.371974      190.94513    
SHAKE stats (type/ave/delta/count) on step 990000
Bond:   1   0.999989  6.18165e-05      200
Angle:  1   109.47    0.00558664       100
    990000   277.43929      0.43013336     133.16873      0.00037394091 -31.403043      164.57177    
    991000   296.60481      0.47177106     135.10626      0.00037394091 -40.834131      175.94039    
    992000   291.87049      0.5059326      142.58196      0.00037394091 -30.550128      173.13209    
    993000   305.73947      0.38067423     155.57914      0.00037394091 -25.779764      181.3589     
    994000   315.13042      0.4941619      153.13249      0.00037394091 -33.796944      186.92944    
    995000   286.27158      0.44323272     129.72687      0.00037394091 -40.084048      169.81092    
    996000   284.89913      0.45139675     141.18347      0.00037394091 -27.813345      168.99681    
    997000   337.12192      0.4229091      174.00954      0.00037394091 -25.964848      199.97438    
    998000   320.00244      0.42144632     156.13824      0.00037394091 -33.681193      189.81943    
    999000   297.2074       0.59171538     146.59675      0.00037394091 -29.701088      176.29784    
SHAKE stats (type/ave/delta/count) on step 1000000
Bond:   1   1.00001   3.89136e-05      200
Angle:  1   109.47    0.00353102       100
   1000000   315.50197      0.52544739     152.58287      0.00037394091 -34.566972      187.14984    
Loop time of 23.58 on 1 procs for 1000000 steps with 300 atoms

Performance: 3664.118 ns/day, 0.007 hours/ns, 42408.778 timesteps/s, 12.723 Matom-step/s
96.9% CPU use with 1 MPI tasks x 1 OpenMP threads

MPI task timing breakdown:
Section |  min time  |  avg time  |  max time  |%varavg| %total
---------------------------------------------------------------
Pair    | 1.5279     | 1.5279     | 1.5279     |   0.0 |  6.48
Bond    | 0.047792   | 0.047792   | 0.047792   |   0.0 |  0.20
Neigh   | 2.9635     | 2.9635     | 2.9635     |   0.0 | 12.57
Comm    | 0.816      | 0.816      | 0.816      |   0.0 |  3.46
Output  | 0.29979    | 0.29979    | 0.29979    |   0.0 |  1.27
Modify  | 16.767     | 16.767     | 16.767     |   0.0 | 71.10
Other   |            | 1.158      |            |       |  4.91

Nlocal:            300 ave         300 max         300 min
Histogram: 1 0 0 0 0 0 0 0 0 0
Nghost:            102 ave         102 max         102 min
Histogram: 1 0 0 0 0 0 0 0 0 0
Neighs:             99 ave          99 max          99 min
Histogram: 1 0 0 0 0 0 0 0 0 0

Total # of neighbors = 99
Ave neighs/atom = 0.33
Ave special neighs/atom = 2
Neighbor list builds = 44487
Dangerous builds = 0
write_data spc.data nocoeff
System init for write_data ...
Generated 0 of 1 mixed pair_coeff terms from geometric mixing rule
Total wall time: 0:00:23
